Mo  S                                   
   1.00000000000000     
     9.5549999999999997    0.0000000000000000    0.0000000000000000
    -4.7774999999999999    8.2748727331603114    0.0000000000000000
     0.0000000000000000    0.0000000000000000   35.0000000000000000
   Mo   S 
     9    17
Direct
  0.2222579074905119  0.1110754258428220  0.3210594364363924
  0.5554841850194802  0.1110754258428260  0.3210594364363924
  0.8873698168011516  0.1080729669351310  0.3222150654185763
  0.2252603663982031  0.4459635165321826  0.3222150654185763
  0.5580099371257109  0.4493532075842662  0.3228384511501672
  0.8873698168011426  0.4459635165321913  0.3222150654185739
  0.2222579074905094  0.7778491483138505  0.3210594364363924
  0.5580099371257106  0.7753233962076206  0.3228384511501684
  0.8839801257490700  0.7753233962076189  0.3228384511501671
  0.3333333333332492  0.0000000000000865  0.2762741543630653
  0.6676724797590025 -0.0068334653099995  0.2774473414463858
  0.9921607215974039 -0.0068334653099995  0.2774473414463857
  0.3401667986433358  0.3411726117359323  0.2774473414463857
  0.6676724797590023  0.3411726117359328  0.2774473414463857
  0.9999999999999134  0.3333333333334225  0.2780664989136566
  0.3401667986433354  0.6656608535743255  0.2774473414463859
  0.9921607215974032  0.6656608535743257  0.2774473414463857
  0.3333333333332729  0.0000000000000631  0.3652336685894897
  0.6633769476408029 -0.0020669593428462  0.3665499937086044
  0.0012227596828260 -0.0020669593428465  0.3665499937086045
  0.3354002926761828  0.3321105736505099  0.3665499937086044
  0.6633769476408029  0.3321105736505105  0.3665499937086044
  0.9999999999999367  0.3333333333333991  0.3663562474017379
  0.3354002926761820  0.6699563856925247  0.3665499937086044
  0.6666666666666018  0.6666666666667261  0.3672746119035535
  0.0012227596828256  0.6699563856925248  0.3665499937086044
 
  0.00000000E+00  0.00000000E+00  0.00000000E+00
  0.00000000E+00  0.00000000E+00  0.00000000E+00
  0.00000000E+00  0.00000000E+00  0.00000000E+00
  0.00000000E+00  0.00000000E+00  0.00000000E+00
  0.00000000E+00  0.00000000E+00  0.00000000E+00
  0.00000000E+00  0.00000000E+00  0.00000000E+00
  0.00000000E+00  0.00000000E+00  0.00000000E+00
  0.00000000E+00  0.00000000E+00  0.00000000E+00
  0.00000000E+00  0.00000000E+00  0.00000000E+00
  0.00000000E+00  0.00000000E+00  0.00000000E+00
  0.00000000E+00  0.00000000E+00  0.00000000E+00
  0.00000000E+00  0.00000000E+00  0.00000000E+00
  0.00000000E+00  0.00000000E+00  0.00000000E+00
  0.00000000E+00  0.00000000E+00  0.00000000E+00
  0.00000000E+00  0.00000000E+00  0.00000000E+00
  0.00000000E+00  0.00000000E+00  0.00000000E+00
  0.00000000E+00  0.00000000E+00  0.00000000E+00
  0.00000000E+00  0.00000000E+00  0.00000000E+00
  0.00000000E+00  0.00000000E+00  0.00000000E+00
  0.00000000E+00  0.00000000E+00  0.00000000E+00
  0.00000000E+00  0.00000000E+00  0.00000000E+00
  0.00000000E+00  0.00000000E+00  0.00000000E+00
  0.00000000E+00  0.00000000E+00  0.00000000E+00
  0.00000000E+00  0.00000000E+00  0.00000000E+00
  0.00000000E+00  0.00000000E+00  0.00000000E+00
  0.00000000E+00  0.00000000E+00  0.00000000E+00
