 vasp.6.3.0 20Jan22 (build Apr 10 2026 02:33:53) complex                        
  
 executed on             LinuxIFC date 2026.04.10  22:15:08
 running   48 mpi-ranks, with    1 threads/rank
 distrk:  each k-point on   48 cores,    1 groups
 distr:  one band on NCORE=   1 cores,   48 groups


--------------------------------------------------------------------------------------------------------


 INCAR:
   SYSTEM = monolayer BP
   ENCUT = 400
   EDIFF = 1E-6
   ISMEAR = 0
   SIGMA = 0.02
   ALGO = BSE
   NBANDS = 144
   ENCUTGW = 150
   NBANDSO = 4
   NBANDSV = 8
   OMEGAMAX = 6
   ANTIRES = 2
   KPOINT_BSE = 1 0 0 0
   NBSEEIG = 100
   LWAVE = .FALSE.
   LCHARG = .FALSE.

 POTCAR:    PAW_PBE Mo_sv_GW 05Dec2013            
 POTCAR:    PAW_PBE Se_GW 20Mar2012               
 POTCAR:    PAW_PBE Mo_sv_GW 05Dec2013            
   VRHFIN =Mo: 4s4p5s4d                                                                             
   LEXCH  = PE                                                                                      
   EATOM  =  1861.5185 eV,  136.8178 Ry                                                             
                                                                                                    
   TITEL  = PAW_PBE Mo_sv_GW 05Dec2013                                                              
   LULTRA =        F    use ultrasoft PP ?                                                          
   IUNSCR =        1    unscreen: 0-lin 1-nonlin 2-no                                               
   RPACOR =    2.000    partial core radius                                                         
   POMASS =   95.940; ZVAL   =   14.000    mass and valenz                                          
   RCORE  =    2.100    outmost cutoff radius                                                       
   RWIGS  =    2.100; RWIGS  =    1.111    wigner-seitz radius (au A)                               
   ENMAX  =  344.914; ENMIN  =  258.686 eV                                                          
   RCLOC  =    1.508    cutoff for local pot                                                        
   LCOR   =        T    correct aug charges                                                         
   LPAW   =        T    paw PP                                                                      
   EAUG   =  964.741                                                                                
   DEXC   =    0.000                                                                                
   RMAX   =    2.149    core radius for proj-oper                                                   
   RAUG   =    1.300    factor for augmentation sphere                                              
   RDEP   =    2.179    radius for radial grids                                                     
   RDEPT  =    1.677    core radius for aug-charge                                                  
                                                                                                    
   Atomic configuration                                                                             
   12 entries                                                                                       
     n  l   j            E        occ.                                                              
     1  0  0.50    -19816.9363   2.0000                                                             
     2  0  0.50     -2796.7578   2.0000                                                             
     2  1  1.50     -2499.7842   6.0000                                                             
     3  0  0.50      -474.2095   2.0000                                                             
     3  1  1.50      -376.9135   6.0000                                                             
     3  2  2.50      -218.6898  10.0000                                                             
     4  0  0.50       -62.1983   2.0000                                                             
     4  0  0.50       -66.6685   0.0000                                                             
     4  1  1.50       -36.4414   6.0000                                                             
     4  1  1.50       -40.8175   0.0000                                                             
     4  2  2.50        -2.3086   6.0000                                                             
     4  3  2.50        -1.3606   0.0000                                                             
   Description                                                                                      
     l       E           TYP  RCUT    TYP  RCUT                                                     
     0    -62.1983072     23  1.950                                                                 
     0     27.2116520     23  1.950                                                                 
     0    149.6640860     23  1.950                                                                 
     1    -36.4413666     23  1.800                                                                 
     1    -40.8174780     23  1.800                                                                 
     1     54.4233040     23  1.800                                                                 
     2     -2.3085597     23  2.000                                                                 
     2     -6.8029130     23  2.000                                                                 
     2    136.0582600     23  2.000                                                                 
     3     13.6058260     23  2.100                                                                 
     3     81.6349560     23  2.100                                                                 
  local pseudopotential read in
  partial core-charges read in
  partial kinetic energy density read in
  kinetic energy density of atom read in
  atomic valenz-charges read in
  non local Contribution for L=           0  read in
    real space projection operators read in
  non local Contribution for L=           0  read in
    real space projection operators read in
  non local Contribution for L=           0  read in
    real space projection operators read in
  non local Contribution for L=           1  read in
    real space projection operators read in
  non local Contribution for L=           1  read in
    real space projection operators read in
  non local Contribution for L=           1  read in
    real space projection operators read in
  non local Contribution for L=           2  read in
    real space projection operators read in
  non local Contribution for L=           2  read in
    real space projection operators read in
  non local Contribution for L=           2  read in
    real space projection operators read in
  non local Contribution for L=           3  read in
    real space projection operators read in
  non local Contribution for L=           3  read in
    real space projection operators read in
    PAW grid and wavefunctions read in
 
   number of l-projection  operators is LMAX  =          11
   number of lm-projection operators is LMMAX =          41
 
 POTCAR:    PAW_PBE Se_GW 20Mar2012               
   VRHFIN =Se: s2p4                                                                                 
   LEXCH  = PE                                                                                      
   EATOM  =   257.1286 eV,   18.8984 Ry                                                             
                                                                                                    
   TITEL  = PAW_PBE Se_GW 20Mar2012                                                                 
   LULTRA =        F    use ultrasoft PP ?                                                          
   IUNSCR =        1    unscreen: 0-lin 1-nonlin 2-no                                               
   RPACOR =    1.900    partial core radius                                                         
   POMASS =   78.960; ZVAL   =    6.000    mass and valenz                                          
   RCORE  =    2.100    outmost cutoff radius                                                       
   RWIGS  =    2.200; RWIGS  =    1.164    wigner-seitz radius (au A)                               
   ENMAX  =  211.555; ENMIN  =  158.666 eV                                                          
   ICORE  =        3    local potential                                                             
   LCOR   =        T    correct aug charges                                                         
   LPAW   =        T    paw PP                                                                      
   EAUG   =  446.842                                                                                
   DEXC   =    0.000                                                                                
   RMAX   =    2.147    core radius for proj-oper                                                   
   RAUG   =    1.300    factor for augmentation sphere                                              
   RDEP   =    2.177    radius for radial grids                                                     
   RDEPT  =    1.928    core radius for aug-charge                                                  
                                                                                                    
   Atomic configuration                                                                             
   10 entries                                                                                       
     n  l   j            E        occ.                                                              
     1  0  0.50    -12503.4788   2.0000                                                             
     2  0  0.50     -1606.9547   2.0000                                                             
     2  1  1.50     -1413.3140   6.0000                                                             
     3  0  0.50      -213.4885   2.0000                                                             
     3  1  1.50      -152.9538   6.0000                                                             
     3  2  2.50       -53.1221  10.0000                                                             
     4  0  0.50       -17.2865   2.0000                                                             
     4  1  0.50        -6.5110   4.0000                                                             
     4  2  2.50        -6.8029   0.0000                                                             
     4  3  2.50        -6.8029   0.0000                                                             
   Description                                                                                      
     l       E           TYP  RCUT    TYP  RCUT                                                     
     0    -17.2865391     23  2.100                                                                 
     0     68.0291300     23  2.100                                                                 
     1     -6.5110285     23  2.100                                                                 
     1     81.6349560     23  2.100                                                                 
     2     -6.8029130     23  2.100                                                                 
     3     -1.3605826      7  2.100                                                                 
  local pseudopotential read in
  partial core-charges read in
  partial kinetic energy density read in
  kinetic energy density of atom read in
  atomic valenz-charges read in
  non local Contribution for L=           0  read in
    real space projection operators read in
  non local Contribution for L=           0  read in
    real space projection operators read in
  non local Contribution for L=           1  read in
    real space projection operators read in
  non local Contribution for L=           1  read in
    real space projection operators read in
  non local Contribution for L=           2  read in
    real space projection operators read in
    PAW grid and wavefunctions read in
 
   number of l-projection  operators is LMAX  =           5
   number of lm-projection operators is LMMAX =          13
 
  PAW_PBE Mo_sv_GW 05Dec2013            :
 energy of atom  1       EATOM=-1861.5185
 kinetic energy error for atom=    0.0824 (will be added to EATOM!!)
  PAW_PBE Se_GW 20Mar2012               :
 energy of atom  2       EATOM= -257.1286
 kinetic energy error for atom=    0.0020 (will be added to EATOM!!)
 
 
 POSCAR: Mo  Se
  positions in direct lattice
  velocities in cartesian coordinates
 -----------------------------------------------------------------------------
|                                                                             |
|           W    W    AA    RRRRR   N    N  II  N    N   GGGG   !!!           |
|           W    W   A  A   R    R  NN   N  II  NN   N  G    G  !!!           |
|           W    W  A    A  R    R  N N  N  II  N N  N  G       !!!           |
|           W WW W  AAAAAA  RRRRR   N  N N  II  N  N N  G  GGG   !            |
|           WW  WW  A    A  R   R   N   NN  II  N   NN  G    G                |
|           W    W  A    A  R    R  N    N  II  N    N   GGGG   !!!           |
|                                                                             |
|     The default for ENCUTGWSOFT is different in this version of VASP.       |
|     If you wish to obtain identical results as using pre vasp.6.3           |
|     please manually set ENCUTGWSOFT =150 in the INCAR file.                 |
|                                                                             |
 -----------------------------------------------------------------------------

 exchange correlation table for  LEXCH =        8
   RHO(1)=    0.500       N(1)  =     2000
   RHO(2)=  100.500       N(2)  =     4000

 VTST: version 4.2, (08/11/21)

 CHAIN: initializing optimizer
 
 OPT: Using VASP Dynamics algorithm
 CHAIN: Read ICHAIN            0
 
 POSCAR: Mo  Se
  positions in direct lattice
  velocities in cartesian coordinates
 


--------------------------------------------------------------------------------------------------------


 ion  position               nearest neighbor table
   1  0.667  0.333  0.500-   2 2.54   3 2.54   2 2.54   3 2.54   2 2.54   3 2.54
   2  0.333  0.667  0.416-   1 2.54   1 2.54   1 2.54
   3  0.333  0.667  0.584-   1 2.54   1 2.54   1 2.54
 
  LATTYP: Found a hexagonal cell.
 ALAT       =     3.3200000000
 C/A-ratio  =     6.0240963855
  
  Lattice vectors:
  
 A1 = (   3.3200000000,   0.0000000000,   0.0000000000)
 A2 = (  -1.6600000000,   2.8752043406,   0.0000000000)
 A3 = (   0.0000000000,   0.0000000000,  20.0000000000)


Analysis of symmetry for initial positions (statically):
=====================================================================
 Subroutine PRICEL returns:
 Original cell was already a primitive cell.
 

 Routine SETGRP: Setting up the symmetry group for a 
 hexagonal supercell.


 Subroutine GETGRP returns: Found 12 space group operations
 (whereof 12 operations were pure point group operations)
 out of a pool of 24 trial point group operations.


The static configuration has the point symmetry D_3h.


Analysis of symmetry for dynamics (positions and initial velocities):
=====================================================================
 Subroutine PRICEL returns:
 Original cell was already a primitive cell.
 

 Routine SETGRP: Setting up the symmetry group for a 
 hexagonal supercell.


 Subroutine GETGRP returns: Found 12 space group operations
 (whereof 12 operations were pure point group operations)
 out of a pool of 24 trial point group operations.


The dynamic configuration has the point symmetry D_3h.


 Subroutine INISYM returns: Found 12 space group operations
 (whereof 12 operations are pure point group operations),
 and found     1 'primitive' translations


----------------------------------------------------------------------------------------

                                     Primitive cell                                     

  volume of cell :     190.9136

  direct lattice vectors                    reciprocal lattice vectors
     3.320000000  0.000000000  0.000000000     0.301204819  0.173900683  0.000000000
    -1.660000000  2.875204341  0.000000000     0.000000000  0.347801367  0.000000000
     0.000000000  0.000000000 20.000000000     0.000000000  0.000000000  0.050000000

  length of vectors
     3.320000000  3.320000000 20.000000000     0.347801367  0.347801367  0.050000000

  position of ions in fractional coordinates (direct lattice)
     0.666666667  0.333333333  0.500000000
     0.333333333  0.666666667  0.416457392
     0.333333333  0.666666667  0.583542608

  ion indices of the primitive-cell ions
   primitive index   ion index
                 1           1
                 2           2
                 3           3

----------------------------------------------------------------------------------------

 
 
 KPOINTS: KPOINTs                                 

Automatic generation of k-mesh.
 Grid dimensions read from file:
 generate k-points for:   24   24    1

 Generating k-lattice:

  Cartesian coordinates                     Fractional coordinates (reciprocal lattice)
     0.012550201  0.007245862  0.000000000     0.041666667 -0.000000000  0.000000000
     0.000000000  0.014491724  0.000000000     0.000000000  0.041666667  0.000000000
     0.000000000  0.000000000  0.050000000     0.000000000  0.000000000  1.000000000

  Length of vectors
     0.014491724  0.014491724  0.050000000

  Shift w.r.t. Gamma in fractional coordinates (k-lattice)
     0.000000000  0.000000000  0.000000000

Space group operators:
 irot       det(A)        alpha          n_x          n_y          n_z        tau_x        tau_y        tau_z
    1     1.000000     0.000000     1.000000     0.000000     0.000000     0.000000     0.000000     0.000000
    2    -1.000000    60.000000     0.000000     0.000000    -1.000000     0.000000     0.000000     0.000000
    3     1.000000   120.000000     0.000000     0.000000    -1.000000     0.000000     0.000000     0.000000
    4    -1.000000   180.000000     0.000000     0.000000     1.000000     0.000000     0.000000     0.000000
    5     1.000000   120.000000     0.000000     0.000000     1.000000     0.000000     0.000000     0.000000
    6    -1.000000    60.000000     0.000000     0.000000     1.000000     0.000000     0.000000     0.000000
    7    -1.000000   180.000000     1.000000    -0.000000     0.000000     0.000000     0.000000     0.000000
    8     1.000000   180.000000     0.866025    -0.500000     0.000000     0.000000     0.000000     0.000000
    9    -1.000000   180.000000     0.500000    -0.866025     0.000000     0.000000     0.000000     0.000000
   10     1.000000   180.000000     0.000000     1.000000     0.000000     0.000000     0.000000     0.000000
   11    -1.000000   180.000000    -0.500000    -0.866025     0.000000     0.000000     0.000000     0.000000
   12     1.000000   180.000000     0.866025     0.500000     0.000000     0.000000     0.000000     0.000000
 
 Subroutine IBZKPT returns following result:
 ===========================================
 
 Found     61 irreducible k-points:
 
 Following reciprocal coordinates:
            Coordinates               Weight
  0.000000  0.000000  0.000000      1.000000
  0.041667 -0.000000  0.000000      6.000000
  0.083333 -0.000000  0.000000      6.000000
  0.125000 -0.000000  0.000000      6.000000
  0.166667 -0.000000  0.000000      6.000000
  0.208333 -0.000000  0.000000      6.000000
  0.250000 -0.000000  0.000000      6.000000
  0.291667  0.000000  0.000000      6.000000
  0.333333 -0.000000  0.000000      6.000000
  0.375000 -0.000000  0.000000      6.000000
  0.416667 -0.000000  0.000000      6.000000
  0.458333 -0.000000  0.000000      6.000000
  0.500000 -0.000000  0.000000      3.000000
  0.041667  0.041667  0.000000      6.000000
  0.083333  0.041667  0.000000     12.000000
  0.125000  0.041667  0.000000     12.000000
  0.166667  0.041667  0.000000     12.000000
  0.208333  0.041667  0.000000     12.000000
  0.250000  0.041667  0.000000     12.000000
  0.291667  0.041667  0.000000     12.000000
  0.333333  0.041667  0.000000     12.000000
  0.375000  0.041667  0.000000     12.000000
  0.416667  0.041667  0.000000     12.000000
  0.458333  0.041667  0.000000     12.000000
  0.083333  0.083333  0.000000      6.000000
  0.125000  0.083333  0.000000     12.000000
  0.166667  0.083333  0.000000     12.000000
  0.208333  0.083333  0.000000     12.000000
  0.250000  0.083333  0.000000     12.000000
  0.291667  0.083333  0.000000     12.000000
  0.333333  0.083333  0.000000     12.000000
  0.375000  0.083333  0.000000     12.000000
  0.416667  0.083333  0.000000     12.000000
  0.458333  0.083333  0.000000      6.000000
  0.125000  0.125000  0.000000      6.000000
  0.166667  0.125000  0.000000     12.000000
  0.208333  0.125000  0.000000     12.000000
  0.250000  0.125000  0.000000     12.000000
  0.291667  0.125000  0.000000     12.000000
  0.333333  0.125000  0.000000     12.000000
  0.375000  0.125000  0.000000     12.000000
  0.416667  0.125000  0.000000     12.000000
  0.166667  0.166667  0.000000      6.000000
  0.208333  0.166667  0.000000     12.000000
  0.250000  0.166667  0.000000     12.000000
  0.291667  0.166667  0.000000     12.000000
  0.333333  0.166667  0.000000     12.000000
  0.375000  0.166667  0.000000     12.000000
  0.416667  0.166667  0.000000      6.000000
  0.208333  0.208333  0.000000      6.000000
  0.250000  0.208333  0.000000     12.000000
  0.291667  0.208333  0.000000     12.000000
  0.333333  0.208333  0.000000     12.000000
  0.375000  0.208333  0.000000     12.000000
  0.250000  0.250000  0.000000      6.000000
  0.291667  0.250000  0.000000     12.000000
  0.333333  0.250000  0.000000     12.000000
  0.375000  0.250000  0.000000      6.000000
  0.291667  0.291667  0.000000      6.000000
  0.333333  0.291667  0.000000     12.000000
  0.333333  0.333333  0.000000      2.000000
 
 Following cartesian coordinates:
            Coordinates               Weight
  0.000000  0.000000  0.000000      1.000000
  0.012550  0.007246  0.000000      6.000000
  0.025100  0.014492  0.000000      6.000000
  0.037651  0.021738  0.000000      6.000000
  0.050201  0.028983  0.000000      6.000000
  0.062751  0.036229  0.000000      6.000000
  0.075301  0.043475  0.000000      6.000000
  0.087851  0.050721  0.000000      6.000000
  0.100402  0.057967  0.000000      6.000000
  0.112952  0.065213  0.000000      6.000000
  0.125502  0.072459  0.000000      6.000000
  0.138052  0.079704  0.000000      6.000000
  0.150602  0.086950  0.000000      3.000000
  0.012550  0.021738  0.000000      6.000000
  0.025100  0.028983  0.000000     12.000000
  0.037651  0.036229  0.000000     12.000000
  0.050201  0.043475  0.000000     12.000000
  0.062751  0.050721  0.000000     12.000000
  0.075301  0.057967  0.000000     12.000000
  0.087851  0.065213  0.000000     12.000000
  0.100402  0.072459  0.000000     12.000000
  0.112952  0.079704  0.000000     12.000000
  0.125502  0.086950  0.000000     12.000000
  0.138052  0.094196  0.000000     12.000000
  0.025100  0.043475  0.000000      6.000000
  0.037651  0.050721  0.000000     12.000000
  0.050201  0.057967  0.000000     12.000000
  0.062751  0.065213  0.000000     12.000000
  0.075301  0.072459  0.000000     12.000000
  0.087851  0.079704  0.000000     12.000000
  0.100402  0.086950  0.000000     12.000000
  0.112952  0.094196  0.000000     12.000000
  0.125502  0.101442  0.000000     12.000000
  0.138052  0.108688  0.000000      6.000000
  0.037651  0.065213  0.000000      6.000000
  0.050201  0.072459  0.000000     12.000000
  0.062751  0.079704  0.000000     12.000000
  0.075301  0.086950  0.000000     12.000000
  0.087851  0.094196  0.000000     12.000000
  0.100402  0.101442  0.000000     12.000000
  0.112952  0.108688  0.000000     12.000000
  0.125502  0.115934  0.000000     12.000000
  0.050201  0.086950  0.000000      6.000000
  0.062751  0.094196  0.000000     12.000000
  0.075301  0.101442  0.000000     12.000000
  0.087851  0.108688  0.000000     12.000000
  0.100402  0.115934  0.000000     12.000000
  0.112952  0.123180  0.000000     12.000000
  0.125502  0.130426  0.000000      6.000000
  0.062751  0.108688  0.000000      6.000000
  0.075301  0.115934  0.000000     12.000000
  0.087851  0.123180  0.000000     12.000000
  0.100402  0.130426  0.000000     12.000000
  0.112952  0.137671  0.000000     12.000000
  0.075301  0.130426  0.000000      6.000000
  0.087851  0.137671  0.000000     12.000000
  0.100402  0.144917  0.000000     12.000000
  0.112952  0.152163  0.000000      6.000000
  0.087851  0.152163  0.000000      6.000000
  0.100402  0.159409  0.000000     12.000000
  0.100402  0.173901  0.000000      2.000000
 
 
 Subroutine IBZKPT_HF returns following result:
 ==============================================
 
 Found    576 k-points in 1st BZ
 the following    576 k-points will be used (e.g. in the exchange kernel)
 Following reciprocal coordinates:   # in IRBZ
  0.000000  0.000000  0.000000    0.00173611   1 t-inv F
  0.041667 -0.000000  0.000000    0.00173611   2 t-inv F
  0.083333 -0.000000  0.000000    0.00173611   3 t-inv F
  0.125000 -0.000000  0.000000    0.00173611   4 t-inv F
  0.166667 -0.000000  0.000000    0.00173611   5 t-inv F
  0.208333 -0.000000  0.000000    0.00173611   6 t-inv F
  0.250000 -0.000000  0.000000    0.00173611   7 t-inv F
  0.291667  0.000000  0.000000    0.00173611   8 t-inv F
  0.333333 -0.000000  0.000000    0.00173611   9 t-inv F
  0.375000 -0.000000  0.000000    0.00173611  10 t-inv F
  0.416667 -0.000000  0.000000    0.00173611  11 t-inv F
  0.458333 -0.000000  0.000000    0.00173611  12 t-inv F
  0.500000 -0.000000  0.000000    0.00173611  13 t-inv F
  0.041667  0.041667  0.000000    0.00173611  14 t-inv F
  0.083333  0.041667  0.000000    0.00173611  15 t-inv F
  0.125000  0.041667  0.000000    0.00173611  16 t-inv F
  0.166667  0.041667  0.000000    0.00173611  17 t-inv F
  0.208333  0.041667  0.000000    0.00173611  18 t-inv F
  0.250000  0.041667  0.000000    0.00173611  19 t-inv F
  0.291667  0.041667  0.000000    0.00173611  20 t-inv F
  0.333333  0.041667  0.000000    0.00173611  21 t-inv F
  0.375000  0.041667  0.000000    0.00173611  22 t-inv F
  0.416667  0.041667  0.000000    0.00173611  23 t-inv F
  0.458333  0.041667  0.000000    0.00173611  24 t-inv F
  0.083333  0.083333  0.000000    0.00173611  25 t-inv F
  0.125000  0.083333  0.000000    0.00173611  26 t-inv F
  0.166667  0.083333  0.000000    0.00173611  27 t-inv F
  0.208333  0.083333  0.000000    0.00173611  28 t-inv F
  0.250000  0.083333  0.000000    0.00173611  29 t-inv F
  0.291667  0.083333  0.000000    0.00173611  30 t-inv F
  0.333333  0.083333  0.000000    0.00173611  31 t-inv F
  0.375000  0.083333  0.000000    0.00173611  32 t-inv F
  0.416667  0.083333  0.000000    0.00173611  33 t-inv F
  0.458333  0.083333  0.000000    0.00173611  34 t-inv F
  0.125000  0.125000  0.000000    0.00173611  35 t-inv F
  0.166667  0.125000  0.000000    0.00173611  36 t-inv F
  0.208333  0.125000  0.000000    0.00173611  37 t-inv F
  0.250000  0.125000  0.000000    0.00173611  38 t-inv F
  0.291667  0.125000  0.000000    0.00173611  39 t-inv F
  0.333333  0.125000  0.000000    0.00173611  40 t-inv F
  0.375000  0.125000  0.000000    0.00173611  41 t-inv F
  0.416667  0.125000  0.000000    0.00173611  42 t-inv F
  0.166667  0.166667  0.000000    0.00173611  43 t-inv F
  0.208333  0.166667  0.000000    0.00173611  44 t-inv F
  0.250000  0.166667  0.000000    0.00173611  45 t-inv F
  0.291667  0.166667  0.000000    0.00173611  46 t-inv F
  0.333333  0.166667  0.000000    0.00173611  47 t-inv F
  0.375000  0.166667  0.000000    0.00173611  48 t-inv F
  0.416667  0.166667  0.000000    0.00173611  49 t-inv F
  0.208333  0.208333  0.000000    0.00173611  50 t-inv F
  0.250000  0.208333  0.000000    0.00173611  51 t-inv F
  0.291667  0.208333  0.000000    0.00173611  52 t-inv F
  0.333333  0.208333  0.000000    0.00173611  53 t-inv F
  0.375000  0.208333  0.000000    0.00173611  54 t-inv F
  0.250000  0.250000  0.000000    0.00173611  55 t-inv F
  0.291667  0.250000  0.000000    0.00173611  56 t-inv F
  0.333333  0.250000  0.000000    0.00173611  57 t-inv F
  0.375000  0.250000  0.000000    0.00173611  58 t-inv F
  0.291667  0.291667  0.000000    0.00173611  59 t-inv F
  0.333333  0.291667  0.000000    0.00173611  60 t-inv F
  0.333333  0.333333  0.000000    0.00173611  61 t-inv F
 -0.000000 -0.041667  0.000000    0.00173611   2 t-inv F
 -0.041667  0.041667  0.000000    0.00173611   2 t-inv F
 -0.000000 -0.083333  0.000000    0.00173611   3 t-inv F
 -0.083333  0.083333  0.000000    0.00173611   3 t-inv F
 -0.000000 -0.125000  0.000000    0.00173611   4 t-inv F
 -0.125000  0.125000  0.000000    0.00173611   4 t-inv F
 -0.000000 -0.166667  0.000000    0.00173611   5 t-inv F
 -0.166667  0.166667  0.000000    0.00173611   5 t-inv F
 -0.000000 -0.208333  0.000000    0.00173611   6 t-inv F
 -0.208333  0.208333  0.000000    0.00173611   6 t-inv F
 -0.000000 -0.250000  0.000000    0.00173611   7 t-inv F
 -0.250000  0.250000  0.000000    0.00173611   7 t-inv F
  0.000000 -0.291667  0.000000    0.00173611   8 t-inv F
 -0.291667  0.291667  0.000000    0.00173611   8 t-inv F
 -0.000000 -0.333333  0.000000    0.00173611   9 t-inv F
 -0.333333  0.333333  0.000000    0.00173611   9 t-inv F
 -0.000000 -0.375000  0.000000    0.00173611  10 t-inv F
 -0.375000  0.375000  0.000000    0.00173611  10 t-inv F
 -0.000000 -0.416667  0.000000    0.00173611  11 t-inv F
 -0.416667  0.416667  0.000000    0.00173611  11 t-inv F
 -0.000000 -0.458333  0.000000    0.00173611  12 t-inv F
 -0.458333  0.458333  0.000000    0.00173611  12 t-inv F
 -0.000000 -0.500000  0.000000    0.00173611  13 t-inv F
 -0.500000  0.500000  0.000000    0.00173611  13 t-inv F
  0.041667 -0.083333  0.000000    0.00173611  14 t-inv F
 -0.083333  0.041667  0.000000    0.00173611  14 t-inv F
 -0.041667  0.083333  0.000000    0.00173611  14 t-inv F
 -0.041667 -0.041667  0.000000    0.00173611  14 t-inv F
  0.083333 -0.041667  0.000000    0.00173611  14 t-inv F
  0.041667 -0.125000  0.000000    0.00173611  15 t-inv F
 -0.125000  0.083333  0.000000    0.00173611  15 t-inv F
 -0.083333  0.125000  0.000000    0.00173611  15 t-inv F
 -0.041667 -0.083333  0.000000    0.00173611  15 t-inv F
  0.125000 -0.041667  0.000000    0.00173611  15 t-inv F
  0.041667 -0.166667  0.000000    0.00173611  16 t-inv F
 -0.166667  0.125000  0.000000    0.00173611  16 t-inv F
 -0.125000  0.166667  0.000000    0.00173611  16 t-inv F
 -0.041667 -0.125000  0.000000    0.00173611  16 t-inv F
  0.166667 -0.041667  0.000000    0.00173611  16 t-inv F
  0.041667 -0.208333  0.000000    0.00173611  17 t-inv F
 -0.208333  0.166667  0.000000    0.00173611  17 t-inv F
 -0.166667  0.208333  0.000000    0.00173611  17 t-inv F
 -0.041667 -0.166667  0.000000    0.00173611  17 t-inv F
  0.208333 -0.041667  0.000000    0.00173611  17 t-inv F
  0.041667 -0.250000  0.000000    0.00173611  18 t-inv F
 -0.250000  0.208333  0.000000    0.00173611  18 t-inv F
 -0.208333  0.250000  0.000000    0.00173611  18 t-inv F
 -0.041667 -0.208333  0.000000    0.00173611  18 t-inv F
  0.250000 -0.041667  0.000000    0.00173611  18 t-inv F
  0.041667 -0.291667  0.000000    0.00173611  19 t-inv F
 -0.291667  0.250000  0.000000    0.00173611  19 t-inv F
 -0.250000  0.291667  0.000000    0.00173611  19 t-inv F
 -0.041667 -0.250000  0.000000    0.00173611  19 t-inv F
  0.291667 -0.041667  0.000000    0.00173611  19 t-inv F
  0.041667 -0.333333  0.000000    0.00173611  20 t-inv F
 -0.333333  0.291667  0.000000    0.00173611  20 t-inv F
 -0.291667  0.333333  0.000000    0.00173611  20 t-inv F
 -0.041667 -0.291667  0.000000    0.00173611  20 t-inv F
  0.333333 -0.041667  0.000000    0.00173611  20 t-inv F
  0.041667 -0.375000  0.000000    0.00173611  21 t-inv F
 -0.375000  0.333333  0.000000    0.00173611  21 t-inv F
 -0.333333  0.375000  0.000000    0.00173611  21 t-inv F
 -0.041667 -0.333333  0.000000    0.00173611  21 t-inv F
  0.375000 -0.041667  0.000000    0.00173611  21 t-inv F
  0.041667 -0.416667  0.000000    0.00173611  22 t-inv F
 -0.416667  0.375000  0.000000    0.00173611  22 t-inv F
 -0.375000  0.416667  0.000000    0.00173611  22 t-inv F
 -0.041667 -0.375000  0.000000    0.00173611  22 t-inv F
  0.416667 -0.041667  0.000000    0.00173611  22 t-inv F
  0.041667 -0.458333  0.000000    0.00173611  23 t-inv F
 -0.458333  0.416667  0.000000    0.00173611  23 t-inv F
 -0.416667  0.458333  0.000000    0.00173611  23 t-inv F
 -0.041667 -0.416667  0.000000    0.00173611  23 t-inv F
  0.458333 -0.041667  0.000000    0.00173611  23 t-inv F
  0.041667 -0.500000  0.000000    0.00173611  24 t-inv F
 -0.500000  0.458333  0.000000    0.00173611  24 t-inv F
 -0.458333  0.500000  0.000000    0.00173611  24 t-inv F
 -0.041667 -0.458333  0.000000    0.00173611  24 t-inv F
  0.500000 -0.041667  0.000000    0.00173611  24 t-inv F
  0.083333 -0.166667  0.000000    0.00173611  25 t-inv F
 -0.166667  0.083333  0.000000    0.00173611  25 t-inv F
 -0.083333  0.166667  0.000000    0.00173611  25 t-inv F
 -0.083333 -0.083333  0.000000    0.00173611  25 t-inv F
  0.166667 -0.083333  0.000000    0.00173611  25 t-inv F
  0.083333 -0.208333  0.000000    0.00173611  26 t-inv F
 -0.208333  0.125000  0.000000    0.00173611  26 t-inv F
 -0.125000  0.208333  0.000000    0.00173611  26 t-inv F
 -0.083333 -0.125000  0.000000    0.00173611  26 t-inv F
  0.208333 -0.083333  0.000000    0.00173611  26 t-inv F
  0.083333 -0.250000  0.000000    0.00173611  27 t-inv F
 -0.250000  0.166667  0.000000    0.00173611  27 t-inv F
 -0.166667  0.250000  0.000000    0.00173611  27 t-inv F
 -0.083333 -0.166667  0.000000    0.00173611  27 t-inv F
  0.250000 -0.083333  0.000000    0.00173611  27 t-inv F
  0.083333 -0.291667  0.000000    0.00173611  28 t-inv F
 -0.291667  0.208333  0.000000    0.00173611  28 t-inv F
 -0.208333  0.291667  0.000000    0.00173611  28 t-inv F
 -0.083333 -0.208333  0.000000    0.00173611  28 t-inv F
  0.291667 -0.083333  0.000000    0.00173611  28 t-inv F
  0.083333 -0.333333  0.000000    0.00173611  29 t-inv F
 -0.333333  0.250000  0.000000    0.00173611  29 t-inv F
 -0.250000  0.333333  0.000000    0.00173611  29 t-inv F
 -0.083333 -0.250000  0.000000    0.00173611  29 t-inv F
  0.333333 -0.083333  0.000000    0.00173611  29 t-inv F
  0.083333 -0.375000  0.000000    0.00173611  30 t-inv F
 -0.375000  0.291667  0.000000    0.00173611  30 t-inv F
 -0.291667  0.375000  0.000000    0.00173611  30 t-inv F
 -0.083333 -0.291667  0.000000    0.00173611  30 t-inv F
  0.375000 -0.083333  0.000000    0.00173611  30 t-inv F
  0.083333 -0.416667  0.000000    0.00173611  31 t-inv F
 -0.416667  0.333333  0.000000    0.00173611  31 t-inv F
 -0.333333  0.416667  0.000000    0.00173611  31 t-inv F
 -0.083333 -0.333333  0.000000    0.00173611  31 t-inv F
  0.416667 -0.083333  0.000000    0.00173611  31 t-inv F
  0.083333 -0.458333  0.000000    0.00173611  32 t-inv F
 -0.458333  0.375000  0.000000    0.00173611  32 t-inv F
 -0.375000  0.458333  0.000000    0.00173611  32 t-inv F
 -0.083333 -0.375000  0.000000    0.00173611  32 t-inv F
  0.458333 -0.083333  0.000000    0.00173611  32 t-inv F
  0.083333 -0.500000  0.000000    0.00173611  33 t-inv F
 -0.500000  0.416667  0.000000    0.00173611  33 t-inv F
 -0.416667  0.500000  0.000000    0.00173611  33 t-inv F
 -0.083333 -0.416667  0.000000    0.00173611  33 t-inv F
  0.500000 -0.083333  0.000000    0.00173611  33 t-inv F
  0.083333 -0.541667  0.000000    0.00173611  34 t-inv F
 -0.541667  0.458333  0.000000    0.00173611  34 t-inv F
 -0.458333  0.541667  0.000000    0.00173611  34 t-inv F
 -0.083333 -0.458333  0.000000    0.00173611  34 t-inv F
  0.541667 -0.083333  0.000000    0.00173611  34 t-inv F
  0.125000 -0.250000  0.000000    0.00173611  35 t-inv F
 -0.250000  0.125000  0.000000    0.00173611  35 t-inv F
 -0.125000  0.250000  0.000000    0.00173611  35 t-inv F
 -0.125000 -0.125000  0.000000    0.00173611  35 t-inv F
  0.250000 -0.125000  0.000000    0.00173611  35 t-inv F
  0.125000 -0.291667  0.000000    0.00173611  36 t-inv F
 -0.291667  0.166667  0.000000    0.00173611  36 t-inv F
 -0.166667  0.291667  0.000000    0.00173611  36 t-inv F
 -0.125000 -0.166667  0.000000    0.00173611  36 t-inv F
  0.291667 -0.125000  0.000000    0.00173611  36 t-inv F
  0.125000 -0.333333  0.000000    0.00173611  37 t-inv F
 -0.333333  0.208333  0.000000    0.00173611  37 t-inv F
 -0.208333  0.333333  0.000000    0.00173611  37 t-inv F
 -0.125000 -0.208333  0.000000    0.00173611  37 t-inv F
  0.333333 -0.125000  0.000000    0.00173611  37 t-inv F
  0.125000 -0.375000  0.000000    0.00173611  38 t-inv F
 -0.375000  0.250000  0.000000    0.00173611  38 t-inv F
 -0.250000  0.375000  0.000000    0.00173611  38 t-inv F
 -0.125000 -0.250000  0.000000    0.00173611  38 t-inv F
  0.375000 -0.125000  0.000000    0.00173611  38 t-inv F
  0.125000 -0.416667  0.000000    0.00173611  39 t-inv F
 -0.416667  0.291667  0.000000    0.00173611  39 t-inv F
 -0.291667  0.416667  0.000000    0.00173611  39 t-inv F
 -0.125000 -0.291667  0.000000    0.00173611  39 t-inv F
  0.416667 -0.125000  0.000000    0.00173611  39 t-inv F
  0.125000 -0.458333  0.000000    0.00173611  40 t-inv F
 -0.458333  0.333333  0.000000    0.00173611  40 t-inv F
 -0.333333  0.458333  0.000000    0.00173611  40 t-inv F
 -0.125000 -0.333333  0.000000    0.00173611  40 t-inv F
  0.458333 -0.125000  0.000000    0.00173611  40 t-inv F
  0.125000 -0.500000  0.000000    0.00173611  41 t-inv F
 -0.500000  0.375000  0.000000    0.00173611  41 t-inv F
 -0.375000  0.500000  0.000000    0.00173611  41 t-inv F
 -0.125000 -0.375000  0.000000    0.00173611  41 t-inv F
  0.500000 -0.125000  0.000000    0.00173611  41 t-inv F
  0.125000 -0.541667  0.000000    0.00173611  42 t-inv F
 -0.541667  0.416667  0.000000    0.00173611  42 t-inv F
 -0.416667  0.541667  0.000000    0.00173611  42 t-inv F
 -0.125000 -0.416667  0.000000    0.00173611  42 t-inv F
  0.541667 -0.125000  0.000000    0.00173611  42 t-inv F
  0.166667 -0.333333  0.000000    0.00173611  43 t-inv F
 -0.333333  0.166667  0.000000    0.00173611  43 t-inv F
 -0.166667  0.333333  0.000000    0.00173611  43 t-inv F
 -0.166667 -0.166667  0.000000    0.00173611  43 t-inv F
  0.333333 -0.166667  0.000000    0.00173611  43 t-inv F
  0.166667 -0.375000  0.000000    0.00173611  44 t-inv F
 -0.375000  0.208333  0.000000    0.00173611  44 t-inv F
 -0.208333  0.375000  0.000000    0.00173611  44 t-inv F
 -0.166667 -0.208333  0.000000    0.00173611  44 t-inv F
  0.375000 -0.166667  0.000000    0.00173611  44 t-inv F
  0.166667 -0.416667  0.000000    0.00173611  45 t-inv F
 -0.416667  0.250000  0.000000    0.00173611  45 t-inv F
 -0.250000  0.416667  0.000000    0.00173611  45 t-inv F
 -0.166667 -0.250000  0.000000    0.00173611  45 t-inv F
  0.416667 -0.166667  0.000000    0.00173611  45 t-inv F
  0.166667 -0.458333  0.000000    0.00173611  46 t-inv F
 -0.458333  0.291667  0.000000    0.00173611  46 t-inv F
 -0.291667  0.458333  0.000000    0.00173611  46 t-inv F
 -0.166667 -0.291667  0.000000    0.00173611  46 t-inv F
  0.458333 -0.166667  0.000000    0.00173611  46 t-inv F
  0.166667 -0.500000  0.000000    0.00173611  47 t-inv F
 -0.500000  0.333333  0.000000    0.00173611  47 t-inv F
 -0.333333  0.500000  0.000000    0.00173611  47 t-inv F
 -0.166667 -0.333333  0.000000    0.00173611  47 t-inv F
  0.500000 -0.166667  0.000000    0.00173611  47 t-inv F
  0.166667 -0.541667  0.000000    0.00173611  48 t-inv F
 -0.541667  0.375000  0.000000    0.00173611  48 t-inv F
 -0.375000  0.541667  0.000000    0.00173611  48 t-inv F
 -0.166667 -0.375000  0.000000    0.00173611  48 t-inv F
  0.541667 -0.166667  0.000000    0.00173611  48 t-inv F
  0.166667 -0.583333  0.000000    0.00173611  49 t-inv F
 -0.583333  0.416667  0.000000    0.00173611  49 t-inv F
 -0.416667  0.583333  0.000000    0.00173611  49 t-inv F
 -0.166667 -0.416667  0.000000    0.00173611  49 t-inv F
  0.583333 -0.166667  0.000000    0.00173611  49 t-inv F
  0.208333 -0.416667  0.000000    0.00173611  50 t-inv F
 -0.416667  0.208333  0.000000    0.00173611  50 t-inv F
 -0.208333  0.416667  0.000000    0.00173611  50 t-inv F
 -0.208333 -0.208333  0.000000    0.00173611  50 t-inv F
  0.416667 -0.208333  0.000000    0.00173611  50 t-inv F
  0.208333 -0.458333  0.000000    0.00173611  51 t-inv F
 -0.458333  0.250000  0.000000    0.00173611  51 t-inv F
 -0.250000  0.458333  0.000000    0.00173611  51 t-inv F
 -0.208333 -0.250000  0.000000    0.00173611  51 t-inv F
  0.458333 -0.208333  0.000000    0.00173611  51 t-inv F
  0.208333 -0.500000  0.000000    0.00173611  52 t-inv F
 -0.500000  0.291667  0.000000    0.00173611  52 t-inv F
 -0.291667  0.500000  0.000000    0.00173611  52 t-inv F
 -0.208333 -0.291667  0.000000    0.00173611  52 t-inv F
  0.500000 -0.208333  0.000000    0.00173611  52 t-inv F
  0.208333 -0.541667  0.000000    0.00173611  53 t-inv F
 -0.541667  0.333333  0.000000    0.00173611  53 t-inv F
 -0.333333  0.541667  0.000000    0.00173611  53 t-inv F
 -0.208333 -0.333333  0.000000    0.00173611  53 t-inv F
  0.541667 -0.208333  0.000000    0.00173611  53 t-inv F
  0.208333 -0.583333  0.000000    0.00173611  54 t-inv F
 -0.583333  0.375000  0.000000    0.00173611  54 t-inv F
 -0.375000  0.583333  0.000000    0.00173611  54 t-inv F
 -0.208333 -0.375000  0.000000    0.00173611  54 t-inv F
  0.583333 -0.208333  0.000000    0.00173611  54 t-inv F
  0.250000 -0.500000  0.000000    0.00173611  55 t-inv F
 -0.500000  0.250000  0.000000    0.00173611  55 t-inv F
 -0.250000  0.500000  0.000000    0.00173611  55 t-inv F
 -0.250000 -0.250000  0.000000    0.00173611  55 t-inv F
  0.500000 -0.250000  0.000000    0.00173611  55 t-inv F
  0.250000 -0.541667  0.000000    0.00173611  56 t-inv F
 -0.541667  0.291667  0.000000    0.00173611  56 t-inv F
 -0.291667  0.541667  0.000000    0.00173611  56 t-inv F
 -0.250000 -0.291667  0.000000    0.00173611  56 t-inv F
  0.541667 -0.250000  0.000000    0.00173611  56 t-inv F
  0.250000 -0.583333  0.000000    0.00173611  57 t-inv F
 -0.583333  0.333333  0.000000    0.00173611  57 t-inv F
 -0.333333  0.583333  0.000000    0.00173611  57 t-inv F
 -0.250000 -0.333333  0.000000    0.00173611  57 t-inv F
  0.583333 -0.250000  0.000000    0.00173611  57 t-inv F
  0.250000 -0.625000  0.000000    0.00173611  58 t-inv F
 -0.625000  0.375000  0.000000    0.00173611  58 t-inv F
 -0.375000  0.625000  0.000000    0.00173611  58 t-inv F
 -0.250000 -0.375000  0.000000    0.00173611  58 t-inv F
  0.625000 -0.250000  0.000000    0.00173611  58 t-inv F
  0.291667 -0.583333  0.000000    0.00173611  59 t-inv F
 -0.583333  0.291667  0.000000    0.00173611  59 t-inv F
 -0.291667  0.583333  0.000000    0.00173611  59 t-inv F
 -0.291667 -0.291667  0.000000    0.00173611  59 t-inv F
  0.583333 -0.291667  0.000000    0.00173611  59 t-inv F
  0.291667 -0.625000  0.000000    0.00173611  60 t-inv F
 -0.625000  0.333333  0.000000    0.00173611  60 t-inv F
 -0.333333  0.625000  0.000000    0.00173611  60 t-inv F
 -0.291667 -0.333333  0.000000    0.00173611  60 t-inv F
  0.625000 -0.291667  0.000000    0.00173611  60 t-inv F
 -0.333333  0.666667  0.000000    0.00173611  61 t-inv F
 -0.041667  0.000000  0.000000    0.00173611   2 t-inv T
  0.000000  0.041667  0.000000    0.00173611   2 t-inv T
  0.041667 -0.041667  0.000000    0.00173611   2 t-inv T
 -0.083333  0.000000  0.000000    0.00173611   3 t-inv T
  0.000000  0.083333  0.000000    0.00173611   3 t-inv T
  0.083333 -0.083333  0.000000    0.00173611   3 t-inv T
 -0.125000  0.000000  0.000000    0.00173611   4 t-inv T
  0.000000  0.125000  0.000000    0.00173611   4 t-inv T
  0.125000 -0.125000  0.000000    0.00173611   4 t-inv T
 -0.166667  0.000000  0.000000    0.00173611   5 t-inv T
  0.000000  0.166667  0.000000    0.00173611   5 t-inv T
  0.166667 -0.166667  0.000000    0.00173611   5 t-inv T
 -0.208333  0.000000  0.000000    0.00173611   6 t-inv T
  0.000000  0.208333  0.000000    0.00173611   6 t-inv T
  0.208333 -0.208333  0.000000    0.00173611   6 t-inv T
 -0.250000  0.000000  0.000000    0.00173611   7 t-inv T
  0.000000  0.250000  0.000000    0.00173611   7 t-inv T
  0.250000 -0.250000  0.000000    0.00173611   7 t-inv T
 -0.291667 -0.000000  0.000000    0.00173611   8 t-inv T
 -0.000000  0.291667  0.000000    0.00173611   8 t-inv T
  0.291667 -0.291667  0.000000    0.00173611   8 t-inv T
 -0.333333  0.000000  0.000000    0.00173611   9 t-inv T
  0.000000  0.333333  0.000000    0.00173611   9 t-inv T
  0.333333 -0.333333  0.000000    0.00173611   9 t-inv T
 -0.375000  0.000000  0.000000    0.00173611  10 t-inv T
  0.000000  0.375000  0.000000    0.00173611  10 t-inv T
  0.375000 -0.375000  0.000000    0.00173611  10 t-inv T
 -0.416667  0.000000  0.000000    0.00173611  11 t-inv T
  0.000000  0.416667  0.000000    0.00173611  11 t-inv T
  0.416667 -0.416667  0.000000    0.00173611  11 t-inv T
 -0.458333  0.000000  0.000000    0.00173611  12 t-inv T
  0.000000  0.458333  0.000000    0.00173611  12 t-inv T
  0.458333 -0.458333  0.000000    0.00173611  12 t-inv T
 -0.083333 -0.041667  0.000000    0.00173611  15 t-inv T
 -0.041667  0.125000  0.000000    0.00173611  15 t-inv T
  0.125000 -0.083333  0.000000    0.00173611  15 t-inv T
  0.083333 -0.125000  0.000000    0.00173611  15 t-inv T
  0.041667  0.083333  0.000000    0.00173611  15 t-inv T
 -0.125000  0.041667  0.000000    0.00173611  15 t-inv T
 -0.125000 -0.041667  0.000000    0.00173611  16 t-inv T
 -0.041667  0.166667  0.000000    0.00173611  16 t-inv T
  0.166667 -0.125000  0.000000    0.00173611  16 t-inv T
  0.125000 -0.166667  0.000000    0.00173611  16 t-inv T
  0.041667  0.125000  0.000000    0.00173611  16 t-inv T
 -0.166667  0.041667  0.000000    0.00173611  16 t-inv T
 -0.166667 -0.041667  0.000000    0.00173611  17 t-inv T
 -0.041667  0.208333  0.000000    0.00173611  17 t-inv T
  0.208333 -0.166667  0.000000    0.00173611  17 t-inv T
  0.166667 -0.208333  0.000000    0.00173611  17 t-inv T
  0.041667  0.166667  0.000000    0.00173611  17 t-inv T
 -0.208333  0.041667  0.000000    0.00173611  17 t-inv T
 -0.208333 -0.041667  0.000000    0.00173611  18 t-inv T
 -0.041667  0.250000  0.000000    0.00173611  18 t-inv T
  0.250000 -0.208333  0.000000    0.00173611  18 t-inv T
  0.208333 -0.250000  0.000000    0.00173611  18 t-inv T
  0.041667  0.208333  0.000000    0.00173611  18 t-inv T
 -0.250000  0.041667  0.000000    0.00173611  18 t-inv T
 -0.250000 -0.041667  0.000000    0.00173611  19 t-inv T
 -0.041667  0.291667  0.000000    0.00173611  19 t-inv T
  0.291667 -0.250000  0.000000    0.00173611  19 t-inv T
  0.250000 -0.291667  0.000000    0.00173611  19 t-inv T
  0.041667  0.250000  0.000000    0.00173611  19 t-inv T
 -0.291667  0.041667  0.000000    0.00173611  19 t-inv T
 -0.291667 -0.041667  0.000000    0.00173611  20 t-inv T
 -0.041667  0.333333  0.000000    0.00173611  20 t-inv T
  0.333333 -0.291667  0.000000    0.00173611  20 t-inv T
  0.291667 -0.333333  0.000000    0.00173611  20 t-inv T
  0.041667  0.291667  0.000000    0.00173611  20 t-inv T
 -0.333333  0.041667  0.000000    0.00173611  20 t-inv T
 -0.333333 -0.041667  0.000000    0.00173611  21 t-inv T
 -0.041667  0.375000  0.000000    0.00173611  21 t-inv T
  0.375000 -0.333333  0.000000    0.00173611  21 t-inv T
  0.333333 -0.375000  0.000000    0.00173611  21 t-inv T
  0.041667  0.333333  0.000000    0.00173611  21 t-inv T
 -0.375000  0.041667  0.000000    0.00173611  21 t-inv T
 -0.375000 -0.041667  0.000000    0.00173611  22 t-inv T
 -0.041667  0.416667  0.000000    0.00173611  22 t-inv T
  0.416667 -0.375000  0.000000    0.00173611  22 t-inv T
  0.375000 -0.416667  0.000000    0.00173611  22 t-inv T
  0.041667  0.375000  0.000000    0.00173611  22 t-inv T
 -0.416667  0.041667  0.000000    0.00173611  22 t-inv T
 -0.416667 -0.041667  0.000000    0.00173611  23 t-inv T
 -0.041667  0.458333  0.000000    0.00173611  23 t-inv T
  0.458333 -0.416667  0.000000    0.00173611  23 t-inv T
  0.416667 -0.458333  0.000000    0.00173611  23 t-inv T
  0.041667  0.416667  0.000000    0.00173611  23 t-inv T
 -0.458333  0.041667  0.000000    0.00173611  23 t-inv T
 -0.458333 -0.041667  0.000000    0.00173611  24 t-inv T
 -0.041667  0.500000  0.000000    0.00173611  24 t-inv T
  0.500000 -0.458333  0.000000    0.00173611  24 t-inv T
  0.458333 -0.500000  0.000000    0.00173611  24 t-inv T
  0.041667  0.458333  0.000000    0.00173611  24 t-inv T
 -0.500000  0.041667  0.000000    0.00173611  24 t-inv T
 -0.125000 -0.083333  0.000000    0.00173611  26 t-inv T
 -0.083333  0.208333  0.000000    0.00173611  26 t-inv T
  0.208333 -0.125000  0.000000    0.00173611  26 t-inv T
  0.125000 -0.208333  0.000000    0.00173611  26 t-inv T
  0.083333  0.125000  0.000000    0.00173611  26 t-inv T
 -0.208333  0.083333  0.000000    0.00173611  26 t-inv T
 -0.166667 -0.083333  0.000000    0.00173611  27 t-inv T
 -0.083333  0.250000  0.000000    0.00173611  27 t-inv T
  0.250000 -0.166667  0.000000    0.00173611  27 t-inv T
  0.166667 -0.250000  0.000000    0.00173611  27 t-inv T
  0.083333  0.166667  0.000000    0.00173611  27 t-inv T
 -0.250000  0.083333  0.000000    0.00173611  27 t-inv T
 -0.208333 -0.083333  0.000000    0.00173611  28 t-inv T
 -0.083333  0.291667  0.000000    0.00173611  28 t-inv T
  0.291667 -0.208333  0.000000    0.00173611  28 t-inv T
  0.208333 -0.291667  0.000000    0.00173611  28 t-inv T
  0.083333  0.208333  0.000000    0.00173611  28 t-inv T
 -0.291667  0.083333  0.000000    0.00173611  28 t-inv T
 -0.250000 -0.083333  0.000000    0.00173611  29 t-inv T
 -0.083333  0.333333  0.000000    0.00173611  29 t-inv T
  0.333333 -0.250000  0.000000    0.00173611  29 t-inv T
  0.250000 -0.333333  0.000000    0.00173611  29 t-inv T
  0.083333  0.250000  0.000000    0.00173611  29 t-inv T
 -0.333333  0.083333  0.000000    0.00173611  29 t-inv T
 -0.291667 -0.083333  0.000000    0.00173611  30 t-inv T
 -0.083333  0.375000  0.000000    0.00173611  30 t-inv T
  0.375000 -0.291667  0.000000    0.00173611  30 t-inv T
  0.291667 -0.375000  0.000000    0.00173611  30 t-inv T
  0.083333  0.291667  0.000000    0.00173611  30 t-inv T
 -0.375000  0.083333  0.000000    0.00173611  30 t-inv T
 -0.333333 -0.083333  0.000000    0.00173611  31 t-inv T
 -0.083333  0.416667  0.000000    0.00173611  31 t-inv T
  0.416667 -0.333333  0.000000    0.00173611  31 t-inv T
  0.333333 -0.416667  0.000000    0.00173611  31 t-inv T
  0.083333  0.333333  0.000000    0.00173611  31 t-inv T
 -0.416667  0.083333  0.000000    0.00173611  31 t-inv T
 -0.375000 -0.083333  0.000000    0.00173611  32 t-inv T
 -0.083333  0.458333  0.000000    0.00173611  32 t-inv T
  0.458333 -0.375000  0.000000    0.00173611  32 t-inv T
  0.375000 -0.458333  0.000000    0.00173611  32 t-inv T
  0.083333  0.375000  0.000000    0.00173611  32 t-inv T
 -0.458333  0.083333  0.000000    0.00173611  32 t-inv T
 -0.416667 -0.083333  0.000000    0.00173611  33 t-inv T
 -0.083333  0.500000  0.000000    0.00173611  33 t-inv T
  0.500000 -0.416667  0.000000    0.00173611  33 t-inv T
  0.416667 -0.500000  0.000000    0.00173611  33 t-inv T
  0.083333  0.416667  0.000000    0.00173611  33 t-inv T
 -0.500000  0.083333  0.000000    0.00173611  33 t-inv T
 -0.166667 -0.125000  0.000000    0.00173611  36 t-inv T
 -0.125000  0.291667  0.000000    0.00173611  36 t-inv T
  0.291667 -0.166667  0.000000    0.00173611  36 t-inv T
  0.166667 -0.291667  0.000000    0.00173611  36 t-inv T
  0.125000  0.166667  0.000000    0.00173611  36 t-inv T
 -0.291667  0.125000  0.000000    0.00173611  36 t-inv T
 -0.208333 -0.125000  0.000000    0.00173611  37 t-inv T
 -0.125000  0.333333  0.000000    0.00173611  37 t-inv T
  0.333333 -0.208333  0.000000    0.00173611  37 t-inv T
  0.208333 -0.333333  0.000000    0.00173611  37 t-inv T
  0.125000  0.208333  0.000000    0.00173611  37 t-inv T
 -0.333333  0.125000  0.000000    0.00173611  37 t-inv T
 -0.250000 -0.125000  0.000000    0.00173611  38 t-inv T
 -0.125000  0.375000  0.000000    0.00173611  38 t-inv T
  0.375000 -0.250000  0.000000    0.00173611  38 t-inv T
  0.250000 -0.375000  0.000000    0.00173611  38 t-inv T
  0.125000  0.250000  0.000000    0.00173611  38 t-inv T
 -0.375000  0.125000  0.000000    0.00173611  38 t-inv T
 -0.291667 -0.125000  0.000000    0.00173611  39 t-inv T
 -0.125000  0.416667  0.000000    0.00173611  39 t-inv T
  0.416667 -0.291667  0.000000    0.00173611  39 t-inv T
  0.291667 -0.416667  0.000000    0.00173611  39 t-inv T
  0.125000  0.291667  0.000000    0.00173611  39 t-inv T
 -0.416667  0.125000  0.000000    0.00173611  39 t-inv T
 -0.333333 -0.125000  0.000000    0.00173611  40 t-inv T
 -0.125000  0.458333  0.000000    0.00173611  40 t-inv T
  0.458333 -0.333333  0.000000    0.00173611  40 t-inv T
  0.333333 -0.458333  0.000000    0.00173611  40 t-inv T
  0.125000  0.333333  0.000000    0.00173611  40 t-inv T
 -0.458333  0.125000  0.000000    0.00173611  40 t-inv T
 -0.375000 -0.125000  0.000000    0.00173611  41 t-inv T
 -0.125000  0.500000  0.000000    0.00173611  41 t-inv T
  0.500000 -0.375000  0.000000    0.00173611  41 t-inv T
  0.375000 -0.500000  0.000000    0.00173611  41 t-inv T
  0.125000  0.375000  0.000000    0.00173611  41 t-inv T
 -0.500000  0.125000  0.000000    0.00173611  41 t-inv T
 -0.416667 -0.125000  0.000000    0.00173611  42 t-inv T
 -0.125000  0.541667  0.000000    0.00173611  42 t-inv T
  0.541667 -0.416667  0.000000    0.00173611  42 t-inv T
  0.416667 -0.541667  0.000000    0.00173611  42 t-inv T
  0.125000  0.416667  0.000000    0.00173611  42 t-inv T
 -0.541667  0.125000  0.000000    0.00173611  42 t-inv T
 -0.208333 -0.166667  0.000000    0.00173611  44 t-inv T
 -0.166667  0.375000  0.000000    0.00173611  44 t-inv T
  0.375000 -0.208333  0.000000    0.00173611  44 t-inv T
  0.208333 -0.375000  0.000000    0.00173611  44 t-inv T
  0.166667  0.208333  0.000000    0.00173611  44 t-inv T
 -0.375000  0.166667  0.000000    0.00173611  44 t-inv T
 -0.250000 -0.166667  0.000000    0.00173611  45 t-inv T
 -0.166667  0.416667  0.000000    0.00173611  45 t-inv T
  0.416667 -0.250000  0.000000    0.00173611  45 t-inv T
  0.250000 -0.416667  0.000000    0.00173611  45 t-inv T
  0.166667  0.250000  0.000000    0.00173611  45 t-inv T
 -0.416667  0.166667  0.000000    0.00173611  45 t-inv T
 -0.291667 -0.166667  0.000000    0.00173611  46 t-inv T
 -0.166667  0.458333  0.000000    0.00173611  46 t-inv T
  0.458333 -0.291667  0.000000    0.00173611  46 t-inv T
  0.291667 -0.458333  0.000000    0.00173611  46 t-inv T
  0.166667  0.291667  0.000000    0.00173611  46 t-inv T
 -0.458333  0.166667  0.000000    0.00173611  46 t-inv T
 -0.333333 -0.166667  0.000000    0.00173611  47 t-inv T
 -0.166667  0.500000  0.000000    0.00173611  47 t-inv T
  0.500000 -0.333333  0.000000    0.00173611  47 t-inv T
  0.333333 -0.500000  0.000000    0.00173611  47 t-inv T
  0.166667  0.333333  0.000000    0.00173611  47 t-inv T
 -0.500000  0.166667  0.000000    0.00173611  47 t-inv T
 -0.375000 -0.166667  0.000000    0.00173611  48 t-inv T
 -0.166667  0.541667  0.000000    0.00173611  48 t-inv T
  0.541667 -0.375000  0.000000    0.00173611  48 t-inv T
  0.375000 -0.541667  0.000000    0.00173611  48 t-inv T
  0.166667  0.375000  0.000000    0.00173611  48 t-inv T
 -0.541667  0.166667  0.000000    0.00173611  48 t-inv T
 -0.250000 -0.208333  0.000000    0.00173611  51 t-inv T
 -0.208333  0.458333  0.000000    0.00173611  51 t-inv T
  0.458333 -0.250000  0.000000    0.00173611  51 t-inv T
  0.250000 -0.458333  0.000000    0.00173611  51 t-inv T
  0.208333  0.250000  0.000000    0.00173611  51 t-inv T
 -0.458333  0.208333  0.000000    0.00173611  51 t-inv T
 -0.291667 -0.208333  0.000000    0.00173611  52 t-inv T
 -0.208333  0.500000  0.000000    0.00173611  52 t-inv T
  0.500000 -0.291667  0.000000    0.00173611  52 t-inv T
  0.291667 -0.500000  0.000000    0.00173611  52 t-inv T
  0.208333  0.291667  0.000000    0.00173611  52 t-inv T
 -0.500000  0.208333  0.000000    0.00173611  52 t-inv T
 -0.333333 -0.208333  0.000000    0.00173611  53 t-inv T
 -0.208333  0.541667  0.000000    0.00173611  53 t-inv T
  0.541667 -0.333333  0.000000    0.00173611  53 t-inv T
  0.333333 -0.541667  0.000000    0.00173611  53 t-inv T
  0.208333  0.333333  0.000000    0.00173611  53 t-inv T
 -0.541667  0.208333  0.000000    0.00173611  53 t-inv T
 -0.375000 -0.208333  0.000000    0.00173611  54 t-inv T
 -0.208333  0.583333  0.000000    0.00173611  54 t-inv T
  0.583333 -0.375000  0.000000    0.00173611  54 t-inv T
  0.375000 -0.583333  0.000000    0.00173611  54 t-inv T
  0.208333  0.375000  0.000000    0.00173611  54 t-inv T
 -0.583333  0.208333  0.000000    0.00173611  54 t-inv T
 -0.291667 -0.250000  0.000000    0.00173611  56 t-inv T
 -0.250000  0.541667  0.000000    0.00173611  56 t-inv T
  0.541667 -0.291667  0.000000    0.00173611  56 t-inv T
  0.291667 -0.541667  0.000000    0.00173611  56 t-inv T
  0.250000  0.291667  0.000000    0.00173611  56 t-inv T
 -0.541667  0.250000  0.000000    0.00173611  56 t-inv T
 -0.333333 -0.250000  0.000000    0.00173611  57 t-inv T
 -0.250000  0.583333  0.000000    0.00173611  57 t-inv T
  0.583333 -0.333333  0.000000    0.00173611  57 t-inv T
  0.333333 -0.583333  0.000000    0.00173611  57 t-inv T
  0.250000  0.333333  0.000000    0.00173611  57 t-inv T
 -0.583333  0.250000  0.000000    0.00173611  57 t-inv T
 -0.333333 -0.291667  0.000000    0.00173611  60 t-inv T
 -0.291667  0.625000  0.000000    0.00173611  60 t-inv T
  0.625000 -0.333333  0.000000    0.00173611  60 t-inv T
  0.333333 -0.625000  0.000000    0.00173611  60 t-inv T
  0.291667  0.333333  0.000000    0.00173611  60 t-inv T
 -0.625000  0.291667  0.000000    0.00173611  60 t-inv T


--------------------------------------------------------------------------------------------------------




 Dimension of arrays:
   k-points           NKPTS =     61   k-points in BZ     NKDIM =    576   number of bands    NBANDS=    144
   number of dos      NEDOS =    301   number of ions     NIONS =      3
   non local maximal  LDIM  =     11   non local SUM 2l+1 LMDIM =     41
   total plane-waves  NPLWV =  25088
   max r-space proj   IRMAX =      1   max aug-charges    IRDMAX=   5930
   dimension x,y,z NGX =    16 NGY =   16 NGZ =   98
   dimension x,y,z NGXF=    32 NGYF=   32 NGZF=  196
   support grid    NGXF=    32 NGYF=   32 NGZF=  196
   ions per type =               1   2
   NGX,Y,Z   is equivalent  to a cutoff of   8.01,  8.01,  8.15 a.u.
   NGXF,Y,Z  is equivalent  to a cutoff of  16.02, 16.02, 16.29 a.u.

 SYSTEM =  monolayer BP                            
 POSCAR =  Mo  Se                                  

 Startparameter for this run:
   NWRITE =      2    write-flag & timer
   PREC   = normal    normal or accurate (medium, high low for compatibility)
   ISTART =      1    job   : 0-new  1-cont  2-samecut
   ICHARG =      0    charge: 1-file 2-atom 10-const
   ISPIN  =      1    spin polarized calculation?
   LNONCOLLINEAR =      F non collinear calculations
   LSORBIT =      F    spin-orbit coupling
   INIWAV =      1    electr: 0-lowe 1-rand  2-diag
   LASPH  =      F    aspherical Exc in radial PAW
 Electronic Relaxation 1
   ENCUT  =  400.0 eV  29.40 Ry    5.42 a.u.   5.41  5.41 32.61*2*pi/ulx,y,z
   ENINI  =  400.0     initial cutoff
   ENAUG  =  964.7 eV  augmentation charge cutoff
   NELM   =     60;   NELMIN=  2; NELMDL=  0     # of ELM steps 
   EDIFF  = 0.1E-05   stopping-criterion for ELM
   LREAL  =      F    real-space projection
   NLSPLINE    = F    spline interpolate recip. space projectors
   LCOMPAT=      F    compatible to vasp.4.4
   GGA_COMPAT  = T    GGA compatible to vasp.4.4-vasp.4.6
   LMAXPAW     = -100 max onsite density
   LMAXMIX     =    2 max onsite mixed and CHGCAR
   VOSKOWN=      0    Vosko Wilk Nusair interpolation
   ROPT   =    0.00000   0.00000
 Ionic relaxation
   EDIFFG = 0.1E-04   stopping-criterion for IOM
   NSW    =      0    number of steps for IOM
   NBLOCK =      1;   KBLOCK =      1    inner block; outer block 
   IBRION =     -1    ionic relax: 0-MD 1-quasi-New 2-CG
   NFREE  =      0    steps in history (QN), initial steepest desc. (CG)
   ISIF   =      0    stress and relaxation
   IWAVPR =     10    prediction:  0-non 1-charg 2-wave 3-comb
   ISYM   =      3    0-nonsym 1-usesym 2-fastsym
   LCORR  =      T    Harris-Foulkes like correction to forces

   POTIM  = 0.5000    time-step for ionic-motion
   TEIN   =    0.0    initial temperature
   TEBEG  =    0.0;   TEEND  =   0.0 temperature during run
   SMASS  =  -3.00    Nose mass-parameter (am)
   estimated Nose-frequenzy (Omega)   =  0.10E-29 period in steps = 0.13E+47 mass=  -0.252E-27a.u.
   SCALEE = 1.0000    scale energy and forces
   NPACO  =    256;   APACO  = 10.0  distance and # of slots for P.C.
   PSTRESS=    0.0 pullay stress

  Mass of Ions in am
   POMASS =  95.94 78.96
  Ionic Valenz
   ZVAL   =  14.00  6.00
  Atomic Wigner-Seitz radii
   RWIGS  =  -1.00 -1.00
  virtual crystal weights 
   VCA    =   1.00  1.00
   NELECT =      26.0000    total number of electrons
   NUPDOWN=      -1.0000    fix difference up-down

 DOS related values:
   EMIN   =  10.00;   EMAX   =-10.00  energy-range for DOS
   EFERMI =   0.00
   ISMEAR =     0;   SIGMA  =   0.02  broadening in eV -4-tet -1-fermi 0-gaus

 Electronic relaxation 2 (details)
   IALGO  =     38    algorithm
   LDIAG  =      T    sub-space diagonalisation (order eigenvalues)
   LSUBROT=      F    optimize rotation matrix (better conditioning)
   TURBO    =      0    0=normal 1=particle mesh
   IRESTART =      0    0=no restart 2=restart with 2 vectors
   NREBOOT  =      0    no. of reboots
   NMIN     =      0    reboot dimension
   EREF     =   0.00    reference energy to select bands
   IMIX   =      4    mixing-type and parameters
     AMIX     =   0.40;   BMIX     =  1.00
     AMIX_MAG =   1.60;   BMIX_MAG =  1.00
     AMIN     =   0.10
     WC   =   100.;   INIMIX=   1;  MIXPRE=   1;  MAXMIX= -45

 Intra band minimization:
   WEIMIN = 0.0000     energy-eigenvalue tresh-hold
   EBREAK =  0.17E-08  absolut break condition
   DEPER  =   0.30     relativ break condition  

   TIME   =   0.40     timestep for ELM

  volume/ion in A,a.u.               =      63.64       429.45
  Fermi-wavevector in a.u.,A,eV,Ry     =   0.842275  1.591668  9.652333  0.709426
  Thomas-Fermi vector in A             =   1.956955
 
 Write flags
   LWAVE        =      F    write WAVECAR
   LDOWNSAMPLE  =      F    k-point downsampling of WAVECAR
   LCHARG       =      F    write CHGCAR
   LVTOT        =      F    write LOCPOT, total local potential
   LVHAR        =      F    write LOCPOT, Hartree potential only
   LELF         =      F    write electronic localiz. function (ELF)
   LORBIT       =      0    0 simple, 1 ext, 2 COOP (PROOUT), +10 PAW based schemes


 Dipole corrections
   LMONO  =      F    monopole corrections only (constant potential shift)
   LDIPOL =      F    correct potential (dipole corrections)
   IDIPOL =      0    1-x, 2-y, 3-z, 4-all directions 
   EPSILON=  1.0000000 bulk dielectric constant

 Exchange correlation treatment:
   GGA     =    --    GGA type
   LEXCH   =     8    internal setting for exchange type
   LIBXC   =     F    Libxc                    
   VOSKOWN =     0    Vosko Wilk Nusair interpolation
   EXXOEP  =     0    0=HF, 1=EXX-LHF (local Hartree Fock) 2=EXX OEP
   LHFCALC =     T    Hartree Fock is set to
   LSYMGRAD=     F    symmetrize gradient (conserves proper symmetry)
   PRECFOCK=normal    Normal, Fast or Accurate (Low or Medium for compatibility)
   LRHFCALC=     F    long range Hartree Fock
   LRSCOR  =     F    long range correlation only (use DFT for short range part)
   LTHOMAS =     F    Thomas Fermi screening in HF
   LMODELHF=     F    short range full HF, long range fraction AEXX
   LFOCKACE=     T    use Adeptively-Compressed-Exchange operator
   ENCUT4O =  -1.0   cutoff for four orbital integrals eV
   LMAXFOCK=     4    L truncation for augmentation on plane wave grid
   LMAXFOCKAE=   4    L truncation for all-electron charge restoration on plane wave grid
   NMAXFOCKAE=   1    number of basis functions for all-electron charge restoration
   LFOCKAEDFT=     F  apply the AE augmentation even for DFT
   NKREDX  =     1    reduce k-point grid by
   NKREDY  =     1    reduce k-point grid by
   NKREDZ  =     1    reduce k-point grid by
   SHIFTRED=     F    shift reduced grid of Gamma
   HFKIDENT=     F    idential grid for each k-point
   ODDONLY =     F    use only odd q-grid points
   EVENONLY=     F    use only even q-grid points
   HFALPHA =   -1.0000 decay constant for conv. correction
   MCALPHA =    0.0000 extent of test-charge in conv. correction in multipole expansion
   AEXX    =    1.0000 exact exchange contribution
   HFSCREEN=    0.0000 screening length (either q_TF or 0.3 A-1)
   HFSCREENC=   0.0000 screening length for correlation (either q_TF or 0.3 A-1)
   HFRCUT  =    0.0000 spherical cutoff for potential kernel
   ALDAX   =    0.0000 LDA exchange part
   AGGAX   =    0.0000 GGA exchange part
   ALDAC   =    0.0000 LDA correlation
   AGGAC   =    0.0000 GGA correlation
   ENCUTFOCK=  -1.0 apply spherical cutoff to Coloumb kernel
   NBANDSGWLOW=     1    first orbital included in HF term
   NBLOCK_FOCK=    64    blocking factor in FOCK_ACC

 Linear response parameters
   LEPSILON=     F    determine dielectric tensor
   LRPA    =     F    only Hartree local field effects (RPA)
   LNABLA  =     F    use nabla operator in PAW spheres
   LVEL    =     F    velocity operator in full k-point grid
   CSHIFT  =0.1000    complex shift for real part using Kramers Kronig
   OMEGAMAX=   6.0    maximum frequency
   DEG_THRESHOLD= 0.2000000E-02 threshold for treating states as degnerate
   RTIME   =   -0.100 relaxation time in fs
  (WPLASMAI=    0.000 imaginary part of plasma frequency in eV, 0.658/RTIME)
   DFIELD  = 0.0000000 0.0000000 0.0000000 field for delta impulse in time
 
  Optional k-point grid parameters
   LKPOINTS_OPT  =     F    use optional k-point grid
   KPOINTS_OPT_MODE=     1    mode for optional k-point grid
 
 Orbital magnetization related:
   ORBITALMAG=     F  switch on orbital magnetization
   LCHIMAG   =     F  perturbation theory with respect to B field
   DQ        =  0.001000  dq finite difference perturbation B field
   LLRAUG    =     F  two centre corrections for induced B field

 Response functions by sum over occupied states:
   ALGO                = BSE      selected many-body perturbation algorithm
   LFINITE_TEMPERATURE =     F    use finite temperature formalism
   LFXC                =     F    include DFT xc kernel in TD-HF and W
   LADDER              =     T    particle hole ladder diagrams for BSE/TD-HF and W (Nano-quanta)
   LRPAFORCE           =     F    calculate RPA forces
   LHARTREE            =     T    include Hartree terms (bubbles-RPA) in BSE/TD-HF
   IBSE                =     0    BSE modus: 0 exact, 1 time-evolution (store matrix), 10 time-evolution (implicit)
   KPOINT              =     1   0   0   0    k-point index at which BSE equation is solved (and G at which response is eval.)
   LTRIPLET            =     F    triplet instead of singlet excitation (BSE only)
   LRSRPA              =     F    range separated RPA (total - short) in ACFDT
   LTCTC               =     F    use test-charge test-charge for self-energy (with ALGO=QPBSE)
   LTCTE               =     F    use test-charge test-electron dielectric function
   LTETE               =     F    use test-electron test-electron dielectric function
   LFXCEPS             =     F    determine f_xc=epsilon-1/Xi Sharma and Gross kernel
   LFXHEG              =     F    model exchange using f_x(G,k_F) from free electron gas
   NATURALO            =     2    0 natural orbitals, 1 only virtual, 2 only occupied-virtual rotation
   LHOLEGF             =     F    use holes in self-consistent GW 
   L2ORDER             =     F    2nd order terms only
   LDMP1               =     F    first order term in ACFDT routine is calculated
   LMP2LT              =     F    use LT MP2
   LSMP2LT             =     F    use stochastic LT MP2
   LGWLF               =     T    use W potentials for exchange like diagrams
   ENCUTGW             = 150.0    cutoff for response function in eV
   ENCUTGWSOFT         = 120.0    soft cutoff for Coulomb kernel in GW response function in eV
   ENCUTLF             =  -1.0    cutoff for local field effects
   LESF_SPLINES        =     F    tricubic splines for electronic structure factor S(q+G)
   LMAXMP2             =    -1    maximum L for one center terms
   SCISSOR             =   0.0    scissor correction
   NOMEGA              =     0    number of frequencies
   NOMEGAR             =     0    number of frequencies along real axis
   NBANDSGW            =    -1    number of bands for which selfenergy shift is calculated
   NBANDSGWLOW         =     1    lowest band included in GW (to exclude core correlation)
   NBANDSO             =     4    number of bands for electron-hole treatment (occupied)
   NBANDSV             =     8    number of bands for electron-hole treatment (virtual)
   NELM                =     1    number of iterations in solving QP/BSE equation
   NELMHF              =     1    number of iterations in the inner HF iteration
   DIM                 =     3    dimensionality of system (0=0D molecules, 3=3D)
   IEPSILON            =     4    cartesion direction for which dielectric function is calculated (4=all)
   ANTIRES             =     2    antiresonant part (0) no TDA (1) w=0 exact (2) accurate
   OMEGAMAX            =   6.0    maximum frequency
   OMEGAMIN            = -30.0    minimum frequency
   OMEGATL             =-200.0    maximum frequency of tail
   OMEGAGRID           =     0    grid type (0 default)
   CSHIFT              =  -0.1    complex shift used in evaluation of response functions
   LSELFENERGY         =     F    calculate selfenergy instead of QP shifts
   LSPECTRAL           =     F    use spectral functions                   
   LSPECTRALGW         =     F    use spectral functions to calculate int dz G(w-z) W(z) (more accurate)
   LSINGLES            =     F    calculate the singles contribution to the correlation energy
   LFERMIGW            =     F    update Fermi-energy in the Greens function

   ODDONLYGW           =     F    avoid all even points for polarizability 
   EVENONLYGW          =     F    avoid all odd  points for polarizability 
   NKREDLFX            =     1    NKREDLFY  =   1   NKREDLFZ  =   1

   TELESCOPE           =     0    use telescope k-point sampling
   NTAUPAR             =    -1    number of TAU groups used in imaginary time calculation
   NOMEGAPAR           =    -1    number of OMEGA groups used in imaginary frequency calculation
   DAMP_NEWTON         =0.8000    damping for Newton step for position update when RPA forces are used



--------------------------------------------------------------------------------------------------------


 Static calculation
 charge density and potential will be updated during run
 non-spin polarized calculation
 Variant of blocked Davidson
 Davidson routine will perform the subspace rotation
 perform sub-space diagonalisation
    after iterative eigenvector-optimisation
 modified Broyden-mixing scheme, WC =      100.0
 initial mixing is a Kerker type mixing with AMIX =  0.4000 and BMIX =      1.0000
 Hartree-type preconditioning will be used
 using additional bands          131
 reciprocal scheme for non local part
 use partial core corrections
 calculate Harris-corrections to forces 
   (improved forces if not selfconsistent)
 use gradient corrections 
 use of overlap-Matrix (Vanderbilt PP)
 Gauss-broadening in eV      SIGMA  =   0.02


--------------------------------------------------------------------------------------------------------


  energy-cutoff  :      400.00
  volume of cell :      190.91
      direct lattice vectors                 reciprocal lattice vectors
     3.320000000  0.000000000  0.000000000     0.301204819  0.173900683  0.000000000
    -1.660000000  2.875204341  0.000000000     0.000000000  0.347801367  0.000000000
     0.000000000  0.000000000 20.000000000     0.000000000  0.000000000  0.050000000

  length of vectors
     3.320000000  3.320000000 20.000000000     0.347801367  0.347801367  0.050000000


 
 old parameters found on file WAVECAR:
  energy-cutoff  :      400.00
  volume of cell :      190.91
      direct lattice vectors                 reciprocal lattice vectors
     3.320000000  0.000000000  0.000000000     0.301204819  0.173900683  0.000000000
    -1.660000000  2.875204341  0.000000000     0.000000000  0.347801367  0.000000000
     0.000000000  0.000000000 20.000000000     0.000000000  0.000000000  0.050000000

  length of vectors

 
 k-points in units of 2pi/SCALE and weight: KPOINTs                                 
   0.00000000  0.00000000  0.00000000       0.002
   0.01255020  0.00724586  0.00000000       0.010
   0.02510040  0.01449172  0.00000000       0.010
   0.03765060  0.02173759  0.00000000       0.010
   0.05020080  0.02898345  0.00000000       0.010
   0.06275100  0.03622931  0.00000000       0.010
   0.07530120  0.04347517  0.00000000       0.010
   0.08785141  0.05072103  0.00000000       0.010
   0.10040161  0.05796689  0.00000000       0.010
   0.11295181  0.06521276  0.00000000       0.010
   0.12550201  0.07245862  0.00000000       0.010
   0.13805221  0.07970448  0.00000000       0.010
   0.15060241  0.08695034  0.00000000       0.005
   0.01255020  0.02173759  0.00000000       0.010
   0.02510040  0.02898345  0.00000000       0.021
   0.03765060  0.03622931  0.00000000       0.021
   0.05020080  0.04347517  0.00000000       0.021
   0.06275100  0.05072103  0.00000000       0.021
   0.07530120  0.05796689  0.00000000       0.021
   0.08785141  0.06521276  0.00000000       0.021
   0.10040161  0.07245862  0.00000000       0.021
   0.11295181  0.07970448  0.00000000       0.021
   0.12550201  0.08695034  0.00000000       0.021
   0.13805221  0.09419620  0.00000000       0.021
   0.02510040  0.04347517  0.00000000       0.010
   0.03765060  0.05072103  0.00000000       0.021
   0.05020080  0.05796689  0.00000000       0.021
   0.06275100  0.06521276  0.00000000       0.021
   0.07530120  0.07245862  0.00000000       0.021
   0.08785141  0.07970448  0.00000000       0.021
   0.10040161  0.08695034  0.00000000       0.021
   0.11295181  0.09419620  0.00000000       0.021
   0.12550201  0.10144207  0.00000000       0.021
   0.13805221  0.10868793  0.00000000       0.010
   0.03765060  0.06521276  0.00000000       0.010
   0.05020080  0.07245862  0.00000000       0.021
   0.06275100  0.07970448  0.00000000       0.021
   0.07530120  0.08695034  0.00000000       0.021
   0.08785141  0.09419620  0.00000000       0.021
   0.10040161  0.10144207  0.00000000       0.021
   0.11295181  0.10868793  0.00000000       0.021
   0.12550201  0.11593379  0.00000000       0.021
   0.05020080  0.08695034  0.00000000       0.010
   0.06275100  0.09419620  0.00000000       0.021
   0.07530120  0.10144207  0.00000000       0.021
   0.08785141  0.10868793  0.00000000       0.021
   0.10040161  0.11593379  0.00000000       0.021
   0.11295181  0.12317965  0.00000000       0.021
   0.12550201  0.13042551  0.00000000       0.010
   0.06275100  0.10868793  0.00000000       0.010
   0.07530120  0.11593379  0.00000000       0.021
   0.08785141  0.12317965  0.00000000       0.021
   0.10040161  0.13042551  0.00000000       0.021
   0.11295181  0.13767137  0.00000000       0.021
   0.07530120  0.13042551  0.00000000       0.010
   0.08785141  0.13767137  0.00000000       0.021
   0.10040161  0.14491724  0.00000000       0.021
   0.11295181  0.15216310  0.00000000       0.010
   0.08785141  0.15216310  0.00000000       0.010
   0.10040161  0.15940896  0.00000000       0.021
   0.10040161  0.17390068  0.00000000       0.003
 
 k-points in reciprocal lattice and weights: KPOINTs                                 
   0.00000000  0.00000000  0.00000000       0.002
   0.04166667 -0.00000000  0.00000000       0.010
   0.08333333 -0.00000000  0.00000000       0.010
   0.12500000 -0.00000000  0.00000000       0.010
   0.16666667 -0.00000000  0.00000000       0.010
   0.20833333 -0.00000000  0.00000000       0.010
   0.25000000 -0.00000000  0.00000000       0.010
   0.29166667  0.00000000  0.00000000       0.010
   0.33333333 -0.00000000  0.00000000       0.010
   0.37500000 -0.00000000  0.00000000       0.010
   0.41666667 -0.00000000  0.00000000       0.010
   0.45833333 -0.00000000  0.00000000       0.010
   0.50000000 -0.00000000  0.00000000       0.005
   0.04166667  0.04166667  0.00000000       0.010
   0.08333333  0.04166667  0.00000000       0.021
   0.12500000  0.04166667  0.00000000       0.021
   0.16666667  0.04166667  0.00000000       0.021
   0.20833333  0.04166667  0.00000000       0.021
   0.25000000  0.04166667  0.00000000       0.021
   0.29166667  0.04166667  0.00000000       0.021
   0.33333333  0.04166667  0.00000000       0.021
   0.37500000  0.04166667  0.00000000       0.021
   0.41666667  0.04166667  0.00000000       0.021
   0.45833333  0.04166667  0.00000000       0.021
   0.08333333  0.08333333  0.00000000       0.010
   0.12500000  0.08333333  0.00000000       0.021
   0.16666667  0.08333333  0.00000000       0.021
   0.20833333  0.08333333  0.00000000       0.021
   0.25000000  0.08333333  0.00000000       0.021
   0.29166667  0.08333333  0.00000000       0.021
   0.33333333  0.08333333  0.00000000       0.021
   0.37500000  0.08333333  0.00000000       0.021
   0.41666667  0.08333333  0.00000000       0.021
   0.45833333  0.08333333  0.00000000       0.010
   0.12500000  0.12500000  0.00000000       0.010
   0.16666667  0.12500000  0.00000000       0.021
   0.20833333  0.12500000  0.00000000       0.021
   0.25000000  0.12500000  0.00000000       0.021
   0.29166667  0.12500000  0.00000000       0.021
   0.33333333  0.12500000  0.00000000       0.021
   0.37500000  0.12500000  0.00000000       0.021
   0.41666667  0.12500000  0.00000000       0.021
   0.16666667  0.16666667  0.00000000       0.010
   0.20833333  0.16666667  0.00000000       0.021
   0.25000000  0.16666667  0.00000000       0.021
   0.29166667  0.16666667  0.00000000       0.021
   0.33333333  0.16666667  0.00000000       0.021
   0.37500000  0.16666667  0.00000000       0.021
   0.41666667  0.16666667  0.00000000       0.010
   0.20833333  0.20833333  0.00000000       0.010
   0.25000000  0.20833333  0.00000000       0.021
   0.29166667  0.20833333  0.00000000       0.021
   0.33333333  0.20833333  0.00000000       0.021
   0.37500000  0.20833333  0.00000000       0.021
   0.25000000  0.25000000  0.00000000       0.010
   0.29166667  0.25000000  0.00000000       0.021
   0.33333333  0.25000000  0.00000000       0.021
   0.37500000  0.25000000  0.00000000       0.010
   0.29166667  0.29166667  0.00000000       0.010
   0.33333333  0.29166667  0.00000000       0.021
   0.33333333  0.33333333  0.00000000       0.003
 
 position of ions in fractional coordinates (direct lattice) 
   0.66666667  0.33333333  0.50000000
   0.33333333  0.66666667  0.41645739
   0.33333333  0.66666667  0.58354261
 
 position of ions in cartesian coordinates  (Angst):
   1.66000000  0.95840145 10.00000000
   0.00000000  1.91680289  8.32914784
   0.00000000  1.91680289 11.67085216
 


--------------------------------------------------------------------------------------------------------


 k-point   1 :   0.0000 0.0000 0.0000  plane waves:    3521
 k-point   2 :   0.0417-0.0000 0.0000  plane waves:    3525
 k-point   3 :   0.0833-0.0000 0.0000  plane waves:    3521
 k-point   4 :   0.1250-0.0000 0.0000  plane waves:    3509
 k-point   5 :   0.1667-0.0000 0.0000  plane waves:    3485
 k-point   6 :   0.2083-0.0000 0.0000  plane waves:    3483
 k-point   7 :   0.2500-0.0000 0.0000  plane waves:    3481
 k-point   8 :   0.2917 0.0000 0.0000  plane waves:    3477
 k-point   9 :   0.3333-0.0000 0.0000  plane waves:    3460
 k-point  10 :   0.3750-0.0000 0.0000  plane waves:    3454
 k-point  11 :   0.4167-0.0000 0.0000  plane waves:    3444
 k-point  12 :   0.4583-0.0000 0.0000  plane waves:    3462
 k-point  13 :   0.5000-0.0000 0.0000  plane waves:    3452
 k-point  14 :   0.0417 0.0417 0.0000  plane waves:    3531
 k-point  15 :   0.0833 0.0417 0.0000  plane waves:    3506
 k-point  16 :   0.1250 0.0417 0.0000  plane waves:    3500
 k-point  17 :   0.1667 0.0417 0.0000  plane waves:    3490
 k-point  18 :   0.2083 0.0417 0.0000  plane waves:    3472
 k-point  19 :   0.2500 0.0417 0.0000  plane waves:    3466
 k-point  20 :   0.2917 0.0417 0.0000  plane waves:    3473
 k-point  21 :   0.3333 0.0417 0.0000  plane waves:    3466
 k-point  22 :   0.3750 0.0417 0.0000  plane waves:    3451
 k-point  23 :   0.4167 0.0417 0.0000  plane waves:    3448
 k-point  24 :   0.4583 0.0417 0.0000  plane waves:    3448
 k-point  25 :   0.0833 0.0833 0.0000  plane waves:    3493
 k-point  26 :   0.1250 0.0833 0.0000  plane waves:    3495
 k-point  27 :   0.1667 0.0833 0.0000  plane waves:    3491
 k-point  28 :   0.2083 0.0833 0.0000  plane waves:    3472
 k-point  29 :   0.2500 0.0833 0.0000  plane waves:    3476
 k-point  30 :   0.2917 0.0833 0.0000  plane waves:    3466
 k-point  31 :   0.3333 0.0833 0.0000  plane waves:    3465
 k-point  32 :   0.3750 0.0833 0.0000  plane waves:    3458
 k-point  33 :   0.4167 0.0833 0.0000  plane waves:    3441
 k-point  34 :   0.4583 0.0833 0.0000  plane waves:    3432
 k-point  35 :   0.1250 0.1250 0.0000  plane waves:    3493
 k-point  36 :   0.1667 0.1250 0.0000  plane waves:    3491
 k-point  37 :   0.2083 0.1250 0.0000  plane waves:    3491
 k-point  38 :   0.2500 0.1250 0.0000  plane waves:    3473
 k-point  39 :   0.2917 0.1250 0.0000  plane waves:    3457
 k-point  40 :   0.3333 0.1250 0.0000  plane waves:    3451
 k-point  41 :   0.3750 0.1250 0.0000  plane waves:    3450
 k-point  42 :   0.4167 0.1250 0.0000  plane waves:    3442
 k-point  43 :   0.1667 0.1667 0.0000  plane waves:    3473
 k-point  44 :   0.2083 0.1667 0.0000  plane waves:    3471
 k-point  45 :   0.2500 0.1667 0.0000  plane waves:    3465
 k-point  46 :   0.2917 0.1667 0.0000  plane waves:    3459
 k-point  47 :   0.3333 0.1667 0.0000  plane waves:    3455
 k-point  48 :   0.3750 0.1667 0.0000  plane waves:    3453
 k-point  49 :   0.4167 0.1667 0.0000  plane waves:    3456
 k-point  50 :   0.2083 0.2083 0.0000  plane waves:    3459
 k-point  51 :   0.2500 0.2083 0.0000  plane waves:    3468
 k-point  52 :   0.2917 0.2083 0.0000  plane waves:    3464
 k-point  53 :   0.3333 0.2083 0.0000  plane waves:    3461
 k-point  54 :   0.3750 0.2083 0.0000  plane waves:    3459
 k-point  55 :   0.2500 0.2500 0.0000  plane waves:    3459
 k-point  56 :   0.2917 0.2500 0.0000  plane waves:    3460
 k-point  57 :   0.3333 0.2500 0.0000  plane waves:    3453
 k-point  58 :   0.3750 0.2500 0.0000  plane waves:    3462
 k-point  59 :   0.2917 0.2917 0.0000  plane waves:    3449
 k-point  60 :   0.3333 0.2917 0.0000  plane waves:    3441
 k-point  61 :   0.3333 0.3333 0.0000  plane waves:    3444

 maximum and minimum number of plane-waves per node :      3531     3432

 maximum number of plane-waves:      3531
 maximum index in each direction: 
   IXMAX=    5   IYMAX=    5   IZMAX=   32
   IXMIN=   -5   IYMIN=   -5   IZMIN=  -32


 serial   3D FFT for wavefunctions
 parallel 3D FFT for charge:
    minimum data exchange during FFTs selected (reduces bandwidth)

 
 Radii for the augmentation spheres in the non-local exchange
 for species   1 augmentation radius   0.893 (default was   0.893)
 error exchange integrals (PW-AE in eV) (mean, max) 0.707 7.393 density error[0,qmax] 0.0266
 for species   2 augmentation radius   1.081 (default was   1.081)
 error exchange integrals (PW-AE in eV) (mean, max) 0.578 4.430 density error[0,qmax] 0.0227
 Maximum index for augmentation-charges in exchange          705
  SETUP_FOCK is finished

 total amount of memory used by VASP MPI-rank0   187085. kBytes
=======================================================================

   base      :      30000. kBytes
   nonl-proj :     142307. kBytes
   fftplans  :        312. kBytes
   grid      :       1361. kBytes
   one-center:        242. kBytes
   HF        :       1344. kBytes
   nonlr-proj:        838. kBytes
   wavefun   :      10681. kBytes
 
     INWAV:  cpu time      0.8024: real time      0.8060
 Broyden mixing: mesh for mixing (old mesh)
   NGX = 11   NGY = 11   NGZ = 65
  (NGX  = 32   NGY  = 32   NGZ  =196)
  gives a total of   7865 points

 charge density for first step will be calculated from the start-wavefunctions


--------------------------------------------------------------------------------------------------------


 Maximum index for augmentation-charges           76 (set IRDMAX)


--------------------------------------------------------------------------------------------------------


 initial charge from wavefunction
    FEWALD:  cpu time      0.0004: real time      0.0004
 available memory per node:   15.82 GB, setting MAXMEM to   16198

 The Fermi energy was updated, please check that it is located mid-gap
 values below the HOMO (VB) or above the LUMO (CB) will cause erroneous energies
 E-fermi :  -0.3024

 Response functions by sum over occupied states:
 ===============================================
   NOMEGA  =     0    number of frequencies
   NOMEGAR =     0    number of frequencies along real axis
   OMEGAMAX=   6.00   maximum frequency
   OMEGAMIN=   2.43   minimum frequency
   OMEGATL = 149.54   maximum frequency of tail
   CSHIFT  =  0.100   complex shift used in evaluation of response functions


 Energies iw= 
 ============

 

IMPORTANT INFORMATION: All symmetrisations will be switched off!
NOSYMM: (Re-)initialisation of all symmetry stuff for point group C_1.

 
 KPOINTS: KPOINTs                                 

Automatic generation of k-mesh.
 Grid dimensions read from file:
 generate k-points for:   24   24    1

 Generating k-lattice:

  Cartesian coordinates                     Fractional coordinates (reciprocal lattice)
     0.012550201  0.007245862  0.000000000     0.041666667 -0.000000000  0.000000000
     0.000000000  0.014491724  0.000000000     0.000000000  0.041666667  0.000000000
     0.000000000  0.000000000  0.050000000     0.000000000  0.000000000  1.000000000

  Length of vectors
     0.014491724  0.014491724  0.050000000

  Shift w.r.t. Gamma in fractional coordinates (k-lattice)
     0.000000000  0.000000000  0.000000000

Space group operators:
 irot       det(A)        alpha          n_x          n_y          n_z        tau_x        tau_y        tau_z
    1     1.000000     0.000000     1.000000     0.000000     0.000000     0.000000     0.000000     0.000000
 
 Subroutine IBZKPT returns following result:
 ===========================================
 
 Found    576 irreducible k-points:
 
 Following reciprocal coordinates:
            Coordinates               Weight
  0.000000  0.000000  0.000000      1.000000
  0.041667 -0.000000  0.000000      1.000000
 -0.041667  0.000000  0.000000      1.000000
  0.000000  0.041667  0.000000      1.000000
  0.000000 -0.041667  0.000000      1.000000
 -0.041667  0.041667  0.000000      1.000000
  0.041667 -0.041667  0.000000      1.000000
  0.083333 -0.000000  0.000000      1.000000
 -0.083333  0.000000  0.000000      1.000000
  0.000000  0.083333  0.000000      1.000000
  0.000000 -0.083333  0.000000      1.000000
 -0.083333  0.083333  0.000000      1.000000
  0.083333 -0.083333  0.000000      1.000000
  0.125000 -0.000000  0.000000      1.000000
 -0.125000  0.000000  0.000000      1.000000
  0.000000  0.125000  0.000000      1.000000
  0.000000 -0.125000  0.000000      1.000000
 -0.125000  0.125000  0.000000      1.000000
  0.125000 -0.125000  0.000000      1.000000
  0.166667 -0.000000  0.000000      1.000000
 -0.166667  0.000000  0.000000      1.000000
  0.000000  0.166667  0.000000      1.000000
  0.000000 -0.166667  0.000000      1.000000
 -0.166667  0.166667  0.000000      1.000000
  0.166667 -0.166667  0.000000      1.000000
  0.208333 -0.000000  0.000000      1.000000
 -0.208333  0.000000  0.000000      1.000000
  0.000000  0.208333  0.000000      1.000000
  0.000000 -0.208333  0.000000      1.000000
 -0.208333  0.208333  0.000000      1.000000
  0.208333 -0.208333  0.000000      1.000000
  0.250000 -0.000000  0.000000      1.000000
 -0.250000  0.000000  0.000000      1.000000
  0.000000  0.250000  0.000000      1.000000
  0.000000 -0.250000  0.000000      1.000000
 -0.250000  0.250000  0.000000      1.000000
  0.250000 -0.250000  0.000000      1.000000
  0.291667  0.000000  0.000000      1.000000
 -0.291667 -0.000000  0.000000      1.000000
  0.000000  0.291667  0.000000      1.000000
  0.000000 -0.291667  0.000000      1.000000
 -0.291667  0.291667  0.000000      1.000000
  0.291667 -0.291667  0.000000      1.000000
  0.333333 -0.000000  0.000000      1.000000
 -0.333333  0.000000  0.000000      1.000000
  0.000000  0.333333  0.000000      1.000000
  0.000000 -0.333333  0.000000      1.000000
 -0.333333  0.333333  0.000000      1.000000
  0.333333 -0.333333  0.000000      1.000000
  0.375000 -0.000000  0.000000      1.000000
 -0.375000  0.000000  0.000000      1.000000
  0.000000  0.375000  0.000000      1.000000
  0.000000 -0.375000  0.000000      1.000000
 -0.375000  0.375000  0.000000      1.000000
  0.375000 -0.375000  0.000000      1.000000
  0.416667 -0.000000  0.000000      1.000000
 -0.416667  0.000000  0.000000      1.000000
  0.000000  0.416667  0.000000      1.000000
  0.000000 -0.416667  0.000000      1.000000
 -0.416667  0.416667  0.000000      1.000000
  0.416667 -0.416667  0.000000      1.000000
  0.458333 -0.000000  0.000000      1.000000
 -0.458333  0.000000  0.000000      1.000000
  0.000000  0.458333  0.000000      1.000000
  0.000000 -0.458333  0.000000      1.000000
 -0.458333  0.458333  0.000000      1.000000
  0.458333 -0.458333  0.000000      1.000000
  0.500000 -0.000000  0.000000      1.000000
  0.000000  0.500000  0.000000      1.000000
  0.500000  0.500000  0.000000      1.000000
  0.041667  0.041667  0.000000      1.000000
 -0.041667 -0.041667  0.000000      1.000000
 -0.041667  0.083333  0.000000      1.000000
  0.041667 -0.083333  0.000000      1.000000
 -0.083333  0.041667  0.000000      1.000000
  0.083333 -0.041667  0.000000      1.000000
  0.083333  0.041667  0.000000      1.000000
 -0.083333 -0.041667  0.000000      1.000000
 -0.041667  0.125000  0.000000      1.000000
  0.041667 -0.125000  0.000000      1.000000
 -0.125000  0.083333  0.000000      1.000000
  0.125000 -0.083333  0.000000      1.000000
 -0.083333  0.125000  0.000000      1.000000
  0.083333 -0.125000  0.000000      1.000000
  0.041667  0.083333  0.000000      1.000000
 -0.041667 -0.083333  0.000000      1.000000
  0.125000 -0.041667  0.000000      1.000000
 -0.125000  0.041667  0.000000      1.000000
  0.125000  0.041667  0.000000      1.000000
 -0.125000 -0.041667  0.000000      1.000000
 -0.041667  0.166667  0.000000      1.000000
  0.041667 -0.166667  0.000000      1.000000
 -0.166667  0.125000  0.000000      1.000000
  0.166667 -0.125000  0.000000      1.000000
 -0.125000  0.166667  0.000000      1.000000
  0.125000 -0.166667  0.000000      1.000000
  0.041667  0.125000  0.000000      1.000000
 -0.041667 -0.125000  0.000000      1.000000
  0.166667 -0.041667  0.000000      1.000000
 -0.166667  0.041667  0.000000      1.000000
  0.166667  0.041667  0.000000      1.000000
 -0.166667 -0.041667  0.000000      1.000000
 -0.041667  0.208333  0.000000      1.000000
  0.041667 -0.208333  0.000000      1.000000
 -0.208333  0.166667  0.000000      1.000000
  0.208333 -0.166667  0.000000      1.000000
 -0.166667  0.208333  0.000000      1.000000
  0.166667 -0.208333  0.000000      1.000000
  0.041667  0.166667  0.000000      1.000000
 -0.041667 -0.166667  0.000000      1.000000
  0.208333 -0.041667  0.000000      1.000000
 -0.208333  0.041667  0.000000      1.000000
  0.208333  0.041667  0.000000      1.000000
 -0.208333 -0.041667  0.000000      1.000000
 -0.041667  0.250000  0.000000      1.000000
  0.041667 -0.250000  0.000000      1.000000
 -0.250000  0.208333  0.000000      1.000000
  0.250000 -0.208333  0.000000      1.000000
 -0.208333  0.250000  0.000000      1.000000
  0.208333 -0.250000  0.000000      1.000000
  0.041667  0.208333  0.000000      1.000000
 -0.041667 -0.208333  0.000000      1.000000
  0.250000 -0.041667  0.000000      1.000000
 -0.250000  0.041667  0.000000      1.000000
  0.250000  0.041667  0.000000      1.000000
 -0.250000 -0.041667  0.000000      1.000000
 -0.041667  0.291667  0.000000      1.000000
  0.041667 -0.291667  0.000000      1.000000
 -0.291667  0.250000  0.000000      1.000000
  0.291667 -0.250000  0.000000      1.000000
 -0.250000  0.291667  0.000000      1.000000
  0.250000 -0.291667  0.000000      1.000000
  0.041667  0.250000  0.000000      1.000000
 -0.041667 -0.250000  0.000000      1.000000
  0.291667 -0.041667  0.000000      1.000000
 -0.291667  0.041667  0.000000      1.000000
  0.291667  0.041667  0.000000      1.000000
 -0.291667 -0.041667  0.000000      1.000000
 -0.041667  0.333333  0.000000      1.000000
  0.041667 -0.333333  0.000000      1.000000
 -0.333333  0.291667  0.000000      1.000000
  0.333333 -0.291667  0.000000      1.000000
 -0.291667  0.333333  0.000000      1.000000
  0.291667 -0.333333  0.000000      1.000000
  0.041667  0.291667  0.000000      1.000000
 -0.041667 -0.291667  0.000000      1.000000
  0.333333 -0.041667  0.000000      1.000000
 -0.333333  0.041667  0.000000      1.000000
  0.333333  0.041667  0.000000      1.000000
 -0.333333 -0.041667  0.000000      1.000000
 -0.041667  0.375000  0.000000      1.000000
  0.041667 -0.375000  0.000000      1.000000
 -0.375000  0.333333  0.000000      1.000000
  0.375000 -0.333333  0.000000      1.000000
 -0.333333  0.375000  0.000000      1.000000
  0.333333 -0.375000  0.000000      1.000000
  0.041667  0.333333  0.000000      1.000000
 -0.041667 -0.333333  0.000000      1.000000
  0.375000 -0.041667  0.000000      1.000000
 -0.375000  0.041667  0.000000      1.000000
  0.375000  0.041667  0.000000      1.000000
 -0.375000 -0.041667  0.000000      1.000000
 -0.041667  0.416667  0.000000      1.000000
  0.041667 -0.416667  0.000000      1.000000
 -0.416667  0.375000  0.000000      1.000000
  0.416667 -0.375000  0.000000      1.000000
 -0.375000  0.416667  0.000000      1.000000
  0.375000 -0.416667  0.000000      1.000000
  0.041667  0.375000  0.000000      1.000000
 -0.041667 -0.375000  0.000000      1.000000
  0.416667 -0.041667  0.000000      1.000000
 -0.416667  0.041667  0.000000      1.000000
  0.416667  0.041667  0.000000      1.000000
 -0.416667 -0.041667  0.000000      1.000000
 -0.041667  0.458333  0.000000      1.000000
  0.041667 -0.458333  0.000000      1.000000
 -0.458333  0.416667  0.000000      1.000000
  0.458333 -0.416667  0.000000      1.000000
 -0.416667  0.458333  0.000000      1.000000
  0.416667 -0.458333  0.000000      1.000000
  0.041667  0.416667  0.000000      1.000000
 -0.041667 -0.416667  0.000000      1.000000
  0.458333 -0.041667  0.000000      1.000000
 -0.458333  0.041667  0.000000      1.000000
  0.458333  0.041667  0.000000      1.000000
 -0.458333 -0.041667  0.000000      1.000000
 -0.041667  0.500000  0.000000      1.000000
  0.041667  0.500000  0.000000      1.000000
  0.500000  0.458333  0.000000      1.000000
  0.500000 -0.458333  0.000000      1.000000
 -0.458333  0.500000  0.000000      1.000000
  0.458333  0.500000  0.000000      1.000000
  0.041667  0.458333  0.000000      1.000000
 -0.041667 -0.458333  0.000000      1.000000
  0.500000 -0.041667  0.000000      1.000000
  0.500000  0.041667  0.000000      1.000000
  0.083333  0.083333  0.000000      1.000000
 -0.083333 -0.083333  0.000000      1.000000
 -0.083333  0.166667  0.000000      1.000000
  0.083333 -0.166667  0.000000      1.000000
 -0.166667  0.083333  0.000000      1.000000
  0.166667 -0.083333  0.000000      1.000000
  0.125000  0.083333  0.000000      1.000000
 -0.125000 -0.083333  0.000000      1.000000
 -0.083333  0.208333  0.000000      1.000000
  0.083333 -0.208333  0.000000      1.000000
 -0.208333  0.125000  0.000000      1.000000
  0.208333 -0.125000  0.000000      1.000000
 -0.125000  0.208333  0.000000      1.000000
  0.125000 -0.208333  0.000000      1.000000
  0.083333  0.125000  0.000000      1.000000
 -0.083333 -0.125000  0.000000      1.000000
  0.208333 -0.083333  0.000000      1.000000
 -0.208333  0.083333  0.000000      1.000000
  0.166667  0.083333  0.000000      1.000000
 -0.166667 -0.083333  0.000000      1.000000
 -0.083333  0.250000  0.000000      1.000000
  0.083333 -0.250000  0.000000      1.000000
 -0.250000  0.166667  0.000000      1.000000
  0.250000 -0.166667  0.000000      1.000000
 -0.166667  0.250000  0.000000      1.000000
  0.166667 -0.250000  0.000000      1.000000
  0.083333  0.166667  0.000000      1.000000
 -0.083333 -0.166667  0.000000      1.000000
  0.250000 -0.083333  0.000000      1.000000
 -0.250000  0.083333  0.000000      1.000000
  0.208333  0.083333  0.000000      1.000000
 -0.208333 -0.083333  0.000000      1.000000
 -0.083333  0.291667  0.000000      1.000000
  0.083333 -0.291667  0.000000      1.000000
 -0.291667  0.208333  0.000000      1.000000
  0.291667 -0.208333  0.000000      1.000000
 -0.208333  0.291667  0.000000      1.000000
  0.208333 -0.291667  0.000000      1.000000
  0.083333  0.208333  0.000000      1.000000
 -0.083333 -0.208333  0.000000      1.000000
  0.291667 -0.083333  0.000000      1.000000
 -0.291667  0.083333  0.000000      1.000000
  0.250000  0.083333  0.000000      1.000000
 -0.250000 -0.083333  0.000000      1.000000
 -0.083333  0.333333  0.000000      1.000000
  0.083333 -0.333333  0.000000      1.000000
 -0.333333  0.250000  0.000000      1.000000
  0.333333 -0.250000  0.000000      1.000000
 -0.250000  0.333333  0.000000      1.000000
  0.250000 -0.333333  0.000000      1.000000
  0.083333  0.250000  0.000000      1.000000
 -0.083333 -0.250000  0.000000      1.000000
  0.333333 -0.083333  0.000000      1.000000
 -0.333333  0.083333  0.000000      1.000000
  0.291667  0.083333  0.000000      1.000000
 -0.291667 -0.083333  0.000000      1.000000
 -0.083333  0.375000  0.000000      1.000000
  0.083333 -0.375000  0.000000      1.000000
 -0.375000  0.291667  0.000000      1.000000
  0.375000 -0.291667  0.000000      1.000000
 -0.291667  0.375000  0.000000      1.000000
  0.291667 -0.375000  0.000000      1.000000
  0.083333  0.291667  0.000000      1.000000
 -0.083333 -0.291667  0.000000      1.000000
  0.375000 -0.083333  0.000000      1.000000
 -0.375000  0.083333  0.000000      1.000000
  0.333333  0.083333  0.000000      1.000000
 -0.333333 -0.083333  0.000000      1.000000
 -0.083333  0.416667  0.000000      1.000000
  0.083333 -0.416667  0.000000      1.000000
 -0.416667  0.333333  0.000000      1.000000
  0.416667 -0.333333  0.000000      1.000000
 -0.333333  0.416667  0.000000      1.000000
  0.333333 -0.416667  0.000000      1.000000
  0.083333  0.333333  0.000000      1.000000
 -0.083333 -0.333333  0.000000      1.000000
  0.416667 -0.083333  0.000000      1.000000
 -0.416667  0.083333  0.000000      1.000000
  0.375000  0.083333  0.000000      1.000000
 -0.375000 -0.083333  0.000000      1.000000
 -0.083333  0.458333  0.000000      1.000000
  0.083333 -0.458333  0.000000      1.000000
 -0.458333  0.375000  0.000000      1.000000
  0.458333 -0.375000  0.000000      1.000000
 -0.375000  0.458333  0.000000      1.000000
  0.375000 -0.458333  0.000000      1.000000
  0.083333  0.375000  0.000000      1.000000
 -0.083333 -0.375000  0.000000      1.000000
  0.458333 -0.083333  0.000000      1.000000
 -0.458333  0.083333  0.000000      1.000000
  0.416667  0.083333  0.000000      1.000000
 -0.416667 -0.083333  0.000000      1.000000
 -0.083333  0.500000  0.000000      1.000000
  0.083333  0.500000  0.000000      1.000000
  0.500000  0.416667  0.000000      1.000000
  0.500000 -0.416667  0.000000      1.000000
 -0.416667  0.500000  0.000000      1.000000
  0.416667  0.500000  0.000000      1.000000
  0.083333  0.416667  0.000000      1.000000
 -0.083333 -0.416667  0.000000      1.000000
  0.500000 -0.083333  0.000000      1.000000
  0.500000  0.083333  0.000000      1.000000
  0.458333  0.083333  0.000000      1.000000
 -0.458333 -0.083333  0.000000      1.000000
 -0.083333 -0.458333  0.000000      1.000000
  0.083333  0.458333  0.000000      1.000000
  0.458333  0.458333  0.000000      1.000000
 -0.458333 -0.458333  0.000000      1.000000
  0.125000  0.125000  0.000000      1.000000
 -0.125000 -0.125000  0.000000      1.000000
 -0.125000  0.250000  0.000000      1.000000
  0.125000 -0.250000  0.000000      1.000000
 -0.250000  0.125000  0.000000      1.000000
  0.250000 -0.125000  0.000000      1.000000
  0.166667  0.125000  0.000000      1.000000
 -0.166667 -0.125000  0.000000      1.000000
 -0.125000  0.291667  0.000000      1.000000
  0.125000 -0.291667  0.000000      1.000000
 -0.291667  0.166667  0.000000      1.000000
  0.291667 -0.166667  0.000000      1.000000
 -0.166667  0.291667  0.000000      1.000000
  0.166667 -0.291667  0.000000      1.000000
  0.125000  0.166667  0.000000      1.000000
 -0.125000 -0.166667  0.000000      1.000000
  0.291667 -0.125000  0.000000      1.000000
 -0.291667  0.125000  0.000000      1.000000
  0.208333  0.125000  0.000000      1.000000
 -0.208333 -0.125000  0.000000      1.000000
 -0.125000  0.333333  0.000000      1.000000
  0.125000 -0.333333  0.000000      1.000000
 -0.333333  0.208333  0.000000      1.000000
  0.333333 -0.208333  0.000000      1.000000
 -0.208333  0.333333  0.000000      1.000000
  0.208333 -0.333333  0.000000      1.000000
  0.125000  0.208333  0.000000      1.000000
 -0.125000 -0.208333  0.000000      1.000000
  0.333333 -0.125000  0.000000      1.000000
 -0.333333  0.125000  0.000000      1.000000
  0.250000  0.125000  0.000000      1.000000
 -0.250000 -0.125000  0.000000      1.000000
 -0.125000  0.375000  0.000000      1.000000
  0.125000 -0.375000  0.000000      1.000000
 -0.375000  0.250000  0.000000      1.000000
  0.375000 -0.250000  0.000000      1.000000
 -0.250000  0.375000  0.000000      1.000000
  0.250000 -0.375000  0.000000      1.000000
  0.125000  0.250000  0.000000      1.000000
 -0.125000 -0.250000  0.000000      1.000000
  0.375000 -0.125000  0.000000      1.000000
 -0.375000  0.125000  0.000000      1.000000
  0.291667  0.125000  0.000000      1.000000
 -0.291667 -0.125000  0.000000      1.000000
 -0.125000  0.416667  0.000000      1.000000
  0.125000 -0.416667  0.000000      1.000000
 -0.416667  0.291667  0.000000      1.000000
  0.416667 -0.291667  0.000000      1.000000
 -0.291667  0.416667  0.000000      1.000000
  0.291667 -0.416667  0.000000      1.000000
  0.125000  0.291667  0.000000      1.000000
 -0.125000 -0.291667  0.000000      1.000000
  0.416667 -0.125000  0.000000      1.000000
 -0.416667  0.125000  0.000000      1.000000
  0.333333  0.125000  0.000000      1.000000
 -0.333333 -0.125000  0.000000      1.000000
 -0.125000  0.458333  0.000000      1.000000
  0.125000 -0.458333  0.000000      1.000000
 -0.458333  0.333333  0.000000      1.000000
  0.458333 -0.333333  0.000000      1.000000
 -0.333333  0.458333  0.000000      1.000000
  0.333333 -0.458333  0.000000      1.000000
  0.125000  0.333333  0.000000      1.000000
 -0.125000 -0.333333  0.000000      1.000000
  0.458333 -0.125000  0.000000      1.000000
 -0.458333  0.125000  0.000000      1.000000
  0.375000  0.125000  0.000000      1.000000
 -0.375000 -0.125000  0.000000      1.000000
 -0.125000  0.500000  0.000000      1.000000
  0.125000  0.500000  0.000000      1.000000
  0.500000  0.375000  0.000000      1.000000
  0.500000 -0.375000  0.000000      1.000000
 -0.375000  0.500000  0.000000      1.000000
  0.375000  0.500000  0.000000      1.000000
  0.125000  0.375000  0.000000      1.000000
 -0.125000 -0.375000  0.000000      1.000000
  0.500000 -0.125000  0.000000      1.000000
  0.500000  0.125000  0.000000      1.000000
  0.416667  0.125000  0.000000      1.000000
 -0.416667 -0.125000  0.000000      1.000000
 -0.125000 -0.458333  0.000000      1.000000
  0.125000  0.458333  0.000000      1.000000
  0.458333  0.416667  0.000000      1.000000
 -0.458333 -0.416667  0.000000      1.000000
 -0.416667 -0.458333  0.000000      1.000000
  0.416667  0.458333  0.000000      1.000000
  0.125000  0.416667  0.000000      1.000000
 -0.125000 -0.416667  0.000000      1.000000
 -0.458333 -0.125000  0.000000      1.000000
  0.458333  0.125000  0.000000      1.000000
  0.166667  0.166667  0.000000      1.000000
 -0.166667 -0.166667  0.000000      1.000000
 -0.166667  0.333333  0.000000      1.000000
  0.166667 -0.333333  0.000000      1.000000
 -0.333333  0.166667  0.000000      1.000000
  0.333333 -0.166667  0.000000      1.000000
  0.208333  0.166667  0.000000      1.000000
 -0.208333 -0.166667  0.000000      1.000000
 -0.166667  0.375000  0.000000      1.000000
  0.166667 -0.375000  0.000000      1.000000
 -0.375000  0.208333  0.000000      1.000000
  0.375000 -0.208333  0.000000      1.000000
 -0.208333  0.375000  0.000000      1.000000
  0.208333 -0.375000  0.000000      1.000000
  0.166667  0.208333  0.000000      1.000000
 -0.166667 -0.208333  0.000000      1.000000
  0.375000 -0.166667  0.000000      1.000000
 -0.375000  0.166667  0.000000      1.000000
  0.250000  0.166667  0.000000      1.000000
 -0.250000 -0.166667  0.000000      1.000000
 -0.166667  0.416667  0.000000      1.000000
  0.166667 -0.416667  0.000000      1.000000
 -0.416667  0.250000  0.000000      1.000000
  0.416667 -0.250000  0.000000      1.000000
 -0.250000  0.416667  0.000000      1.000000
  0.250000 -0.416667  0.000000      1.000000
  0.166667  0.250000  0.000000      1.000000
 -0.166667 -0.250000  0.000000      1.000000
  0.416667 -0.166667  0.000000      1.000000
 -0.416667  0.166667  0.000000      1.000000
  0.291667  0.166667  0.000000      1.000000
 -0.291667 -0.166667  0.000000      1.000000
 -0.166667  0.458333  0.000000      1.000000
  0.166667 -0.458333  0.000000      1.000000
 -0.458333  0.291667  0.000000      1.000000
  0.458333 -0.291667  0.000000      1.000000
 -0.291667  0.458333  0.000000      1.000000
  0.291667 -0.458333  0.000000      1.000000
  0.166667  0.291667  0.000000      1.000000
 -0.166667 -0.291667  0.000000      1.000000
  0.458333 -0.166667  0.000000      1.000000
 -0.458333  0.166667  0.000000      1.000000
  0.333333  0.166667  0.000000      1.000000
 -0.333333 -0.166667  0.000000      1.000000
 -0.166667  0.500000  0.000000      1.000000
  0.166667  0.500000  0.000000      1.000000
  0.500000  0.333333  0.000000      1.000000
  0.500000 -0.333333  0.000000      1.000000
 -0.333333  0.500000  0.000000      1.000000
  0.333333  0.500000  0.000000      1.000000
  0.166667  0.333333  0.000000      1.000000
 -0.166667 -0.333333  0.000000      1.000000
  0.500000 -0.166667  0.000000      1.000000
  0.500000  0.166667  0.000000      1.000000
  0.375000  0.166667  0.000000      1.000000
 -0.375000 -0.166667  0.000000      1.000000
 -0.166667 -0.458333  0.000000      1.000000
  0.166667  0.458333  0.000000      1.000000
  0.458333  0.375000  0.000000      1.000000
 -0.458333 -0.375000  0.000000      1.000000
 -0.375000 -0.458333  0.000000      1.000000
  0.375000  0.458333  0.000000      1.000000
  0.166667  0.375000  0.000000      1.000000
 -0.166667 -0.375000  0.000000      1.000000
 -0.458333 -0.166667  0.000000      1.000000
  0.458333  0.166667  0.000000      1.000000
  0.416667  0.166667  0.000000      1.000000
 -0.416667 -0.166667  0.000000      1.000000
 -0.166667 -0.416667  0.000000      1.000000
  0.166667  0.416667  0.000000      1.000000
  0.416667  0.416667  0.000000      1.000000
 -0.416667 -0.416667  0.000000      1.000000
  0.208333  0.208333  0.000000      1.000000
 -0.208333 -0.208333  0.000000      1.000000
 -0.208333  0.416667  0.000000      1.000000
  0.208333 -0.416667  0.000000      1.000000
 -0.416667  0.208333  0.000000      1.000000
  0.416667 -0.208333  0.000000      1.000000
  0.250000  0.208333  0.000000      1.000000
 -0.250000 -0.208333  0.000000      1.000000
 -0.208333  0.458333  0.000000      1.000000
  0.208333 -0.458333  0.000000      1.000000
 -0.458333  0.250000  0.000000      1.000000
  0.458333 -0.250000  0.000000      1.000000
 -0.250000  0.458333  0.000000      1.000000
  0.250000 -0.458333  0.000000      1.000000
  0.208333  0.250000  0.000000      1.000000
 -0.208333 -0.250000  0.000000      1.000000
  0.458333 -0.208333  0.000000      1.000000
 -0.458333  0.208333  0.000000      1.000000
  0.291667  0.208333  0.000000      1.000000
 -0.291667 -0.208333  0.000000      1.000000
 -0.208333  0.500000  0.000000      1.000000
  0.208333  0.500000  0.000000      1.000000
  0.500000  0.291667  0.000000      1.000000
  0.500000 -0.291667  0.000000      1.000000
 -0.291667  0.500000  0.000000      1.000000
  0.291667  0.500000  0.000000      1.000000
  0.208333  0.291667  0.000000      1.000000
 -0.208333 -0.291667  0.000000      1.000000
  0.500000 -0.208333  0.000000      1.000000
  0.500000  0.208333  0.000000      1.000000
  0.333333  0.208333  0.000000      1.000000
 -0.333333 -0.208333  0.000000      1.000000
 -0.208333 -0.458333  0.000000      1.000000
  0.208333  0.458333  0.000000      1.000000
  0.458333  0.333333  0.000000      1.000000
 -0.458333 -0.333333  0.000000      1.000000
 -0.333333 -0.458333  0.000000      1.000000
  0.333333  0.458333  0.000000      1.000000
  0.208333  0.333333  0.000000      1.000000
 -0.208333 -0.333333  0.000000      1.000000
 -0.458333 -0.208333  0.000000      1.000000
  0.458333  0.208333  0.000000      1.000000
  0.375000  0.208333  0.000000      1.000000
 -0.375000 -0.208333  0.000000      1.000000
 -0.208333 -0.416667  0.000000      1.000000
  0.208333  0.416667  0.000000      1.000000
  0.416667  0.375000  0.000000      1.000000
 -0.416667 -0.375000  0.000000      1.000000
 -0.375000 -0.416667  0.000000      1.000000
  0.375000  0.416667  0.000000      1.000000
  0.208333  0.375000  0.000000      1.000000
 -0.208333 -0.375000  0.000000      1.000000
 -0.416667 -0.208333  0.000000      1.000000
  0.416667  0.208333  0.000000      1.000000
  0.250000  0.250000  0.000000      1.000000
 -0.250000 -0.250000  0.000000      1.000000
 -0.250000  0.500000  0.000000      1.000000
  0.250000  0.500000  0.000000      1.000000
  0.500000  0.250000  0.000000      1.000000
  0.500000 -0.250000  0.000000      1.000000
  0.291667  0.250000  0.000000      1.000000
 -0.291667 -0.250000  0.000000      1.000000
 -0.250000 -0.458333  0.000000      1.000000
  0.250000  0.458333  0.000000      1.000000
  0.458333  0.291667  0.000000      1.000000
 -0.458333 -0.291667  0.000000      1.000000
 -0.291667 -0.458333  0.000000      1.000000
  0.291667  0.458333  0.000000      1.000000
  0.250000  0.291667  0.000000      1.000000
 -0.250000 -0.291667  0.000000      1.000000
 -0.458333 -0.250000  0.000000      1.000000
  0.458333  0.250000  0.000000      1.000000
  0.333333  0.250000  0.000000      1.000000
 -0.333333 -0.250000  0.000000      1.000000
 -0.250000 -0.416667  0.000000      1.000000
  0.250000  0.416667  0.000000      1.000000
  0.416667  0.333333  0.000000      1.000000
 -0.416667 -0.333333  0.000000      1.000000
 -0.333333 -0.416667  0.000000      1.000000
  0.333333  0.416667  0.000000      1.000000
  0.250000  0.333333  0.000000      1.000000
 -0.250000 -0.333333  0.000000      1.000000
 -0.416667 -0.250000  0.000000      1.000000
  0.416667  0.250000  0.000000      1.000000
  0.375000  0.250000  0.000000      1.000000
 -0.375000 -0.250000  0.000000      1.000000
 -0.250000 -0.375000  0.000000      1.000000
  0.250000  0.375000  0.000000      1.000000
  0.375000  0.375000  0.000000      1.000000
 -0.375000 -0.375000  0.000000      1.000000
  0.291667  0.291667  0.000000      1.000000
 -0.291667 -0.291667  0.000000      1.000000
 -0.291667 -0.416667  0.000000      1.000000
  0.291667  0.416667  0.000000      1.000000
  0.416667  0.291667  0.000000      1.000000
 -0.416667 -0.291667  0.000000      1.000000
  0.333333  0.291667  0.000000      1.000000
 -0.333333 -0.291667  0.000000      1.000000
 -0.291667 -0.375000  0.000000      1.000000
  0.291667  0.375000  0.000000      1.000000
  0.375000  0.333333  0.000000      1.000000
 -0.375000 -0.333333  0.000000      1.000000
 -0.333333 -0.375000  0.000000      1.000000
  0.333333  0.375000  0.000000      1.000000
  0.291667  0.333333  0.000000      1.000000
 -0.291667 -0.333333  0.000000      1.000000
 -0.375000 -0.291667  0.000000      1.000000
  0.375000  0.291667  0.000000      1.000000
  0.333333  0.333333  0.000000      1.000000
 -0.333333 -0.333333  0.000000      1.000000
 
 Following cartesian coordinates:
            Coordinates               Weight
  0.000000  0.000000  0.000000      1.000000
  0.012550  0.007246  0.000000      1.000000
 -0.012550 -0.007246  0.000000      1.000000
  0.000000  0.014492  0.000000      1.000000
  0.000000 -0.014492  0.000000      1.000000
 -0.012550  0.007246  0.000000      1.000000
  0.012550 -0.007246  0.000000      1.000000
  0.025100  0.014492  0.000000      1.000000
 -0.025100 -0.014492  0.000000      1.000000
  0.000000  0.028983  0.000000      1.000000
  0.000000 -0.028983  0.000000      1.000000
 -0.025100  0.014492  0.000000      1.000000
  0.025100 -0.014492  0.000000      1.000000
  0.037651  0.021738  0.000000      1.000000
 -0.037651 -0.021738  0.000000      1.000000
  0.000000  0.043475  0.000000      1.000000
  0.000000 -0.043475  0.000000      1.000000
 -0.037651  0.021738  0.000000      1.000000
  0.037651 -0.021738  0.000000      1.000000
  0.050201  0.028983  0.000000      1.000000
 -0.050201 -0.028983  0.000000      1.000000
  0.000000  0.057967  0.000000      1.000000
  0.000000 -0.057967  0.000000      1.000000
 -0.050201  0.028983  0.000000      1.000000
  0.050201 -0.028983  0.000000      1.000000
  0.062751  0.036229  0.000000      1.000000
 -0.062751 -0.036229  0.000000      1.000000
  0.000000  0.072459  0.000000      1.000000
  0.000000 -0.072459  0.000000      1.000000
 -0.062751  0.036229  0.000000      1.000000
  0.062751 -0.036229  0.000000      1.000000
  0.075301  0.043475  0.000000      1.000000
 -0.075301 -0.043475  0.000000      1.000000
  0.000000  0.086950  0.000000      1.000000
  0.000000 -0.086950  0.000000      1.000000
 -0.075301  0.043475  0.000000      1.000000
  0.075301 -0.043475  0.000000      1.000000
  0.087851  0.050721  0.000000      1.000000
 -0.087851 -0.050721  0.000000      1.000000
  0.000000  0.101442  0.000000      1.000000
  0.000000 -0.101442  0.000000      1.000000
 -0.087851  0.050721  0.000000      1.000000
  0.087851 -0.050721  0.000000      1.000000
  0.100402  0.057967  0.000000      1.000000
 -0.100402 -0.057967  0.000000      1.000000
  0.000000  0.115934  0.000000      1.000000
  0.000000 -0.115934  0.000000      1.000000
 -0.100402  0.057967  0.000000      1.000000
  0.100402 -0.057967  0.000000      1.000000
  0.112952  0.065213  0.000000      1.000000
 -0.112952 -0.065213  0.000000      1.000000
  0.000000  0.130426  0.000000      1.000000
  0.000000 -0.130426  0.000000      1.000000
 -0.112952  0.065213  0.000000      1.000000
  0.112952 -0.065213  0.000000      1.000000
  0.125502  0.072459  0.000000      1.000000
 -0.125502 -0.072459  0.000000      1.000000
  0.000000  0.144917  0.000000      1.000000
  0.000000 -0.144917  0.000000      1.000000
 -0.125502  0.072459  0.000000      1.000000
  0.125502 -0.072459  0.000000      1.000000
  0.138052  0.079704  0.000000      1.000000
 -0.138052 -0.079704  0.000000      1.000000
  0.000000  0.159409  0.000000      1.000000
  0.000000 -0.159409  0.000000      1.000000
 -0.138052  0.079704  0.000000      1.000000
  0.138052 -0.079704  0.000000      1.000000
  0.150602  0.086950  0.000000      1.000000
  0.000000  0.173901  0.000000      1.000000
  0.150602  0.260851  0.000000      1.000000
  0.012550  0.021738  0.000000      1.000000
 -0.012550 -0.021738  0.000000      1.000000
 -0.012550  0.021738  0.000000      1.000000
  0.012550 -0.021738  0.000000      1.000000
 -0.025100 -0.000000  0.000000      1.000000
  0.025100  0.000000  0.000000      1.000000
  0.025100  0.028983  0.000000      1.000000
 -0.025100 -0.028983  0.000000      1.000000
 -0.012550  0.036229  0.000000      1.000000
  0.012550 -0.036229  0.000000      1.000000
 -0.037651  0.007246  0.000000      1.000000
  0.037651 -0.007246  0.000000      1.000000
 -0.025100  0.028983  0.000000      1.000000
  0.025100 -0.028983  0.000000      1.000000
  0.012550  0.036229  0.000000      1.000000
 -0.012550 -0.036229  0.000000      1.000000
  0.037651  0.007246  0.000000      1.000000
 -0.037651 -0.007246  0.000000      1.000000
  0.037651  0.036229  0.000000      1.000000
 -0.037651 -0.036229  0.000000      1.000000
 -0.012550  0.050721  0.000000      1.000000
  0.012550 -0.050721  0.000000      1.000000
 -0.050201  0.014492  0.000000      1.000000
  0.050201 -0.014492  0.000000      1.000000
 -0.037651  0.036229  0.000000      1.000000
  0.037651 -0.036229  0.000000      1.000000
  0.012550  0.050721  0.000000      1.000000
 -0.012550 -0.050721  0.000000      1.000000
  0.050201  0.014492  0.000000      1.000000
 -0.050201 -0.014492  0.000000      1.000000
  0.050201  0.043475  0.000000      1.000000
 -0.050201 -0.043475  0.000000      1.000000
 -0.012550  0.065213  0.000000      1.000000
  0.012550 -0.065213  0.000000      1.000000
 -0.062751  0.021738  0.000000      1.000000
  0.062751 -0.021738  0.000000      1.000000
 -0.050201  0.043475  0.000000      1.000000
  0.050201 -0.043475  0.000000      1.000000
  0.012550  0.065213  0.000000      1.000000
 -0.012550 -0.065213  0.000000      1.000000
  0.062751  0.021738  0.000000      1.000000
 -0.062751 -0.021738  0.000000      1.000000
  0.062751  0.050721  0.000000      1.000000
 -0.062751 -0.050721  0.000000      1.000000
 -0.012550  0.079704  0.000000      1.000000
  0.012550 -0.079704  0.000000      1.000000
 -0.075301  0.028983  0.000000      1.000000
  0.075301 -0.028983  0.000000      1.000000
 -0.062751  0.050721  0.000000      1.000000
  0.062751 -0.050721  0.000000      1.000000
  0.012550  0.079704  0.000000      1.000000
 -0.012550 -0.079704  0.000000      1.000000
  0.075301  0.028983  0.000000      1.000000
 -0.075301 -0.028983  0.000000      1.000000
  0.075301  0.057967  0.000000      1.000000
 -0.075301 -0.057967  0.000000      1.000000
 -0.012550  0.094196  0.000000      1.000000
  0.012550 -0.094196  0.000000      1.000000
 -0.087851  0.036229  0.000000      1.000000
  0.087851 -0.036229  0.000000      1.000000
 -0.075301  0.057967  0.000000      1.000000
  0.075301 -0.057967  0.000000      1.000000
  0.012550  0.094196  0.000000      1.000000
 -0.012550 -0.094196  0.000000      1.000000
  0.087851  0.036229  0.000000      1.000000
 -0.087851 -0.036229  0.000000      1.000000
  0.087851  0.065213  0.000000      1.000000
 -0.087851 -0.065213  0.000000      1.000000
 -0.012550  0.108688  0.000000      1.000000
  0.012550 -0.108688  0.000000      1.000000
 -0.100402  0.043475  0.000000      1.000000
  0.100402 -0.043475  0.000000      1.000000
 -0.087851  0.065213  0.000000      1.000000
  0.087851 -0.065213  0.000000      1.000000
  0.012550  0.108688  0.000000      1.000000
 -0.012550 -0.108688  0.000000      1.000000
  0.100402  0.043475  0.000000      1.000000
 -0.100402 -0.043475  0.000000      1.000000
  0.100402  0.072459  0.000000      1.000000
 -0.100402 -0.072459  0.000000      1.000000
 -0.012550  0.123180  0.000000      1.000000
  0.012550 -0.123180  0.000000      1.000000
 -0.112952  0.050721  0.000000      1.000000
  0.112952 -0.050721  0.000000      1.000000
 -0.100402  0.072459  0.000000      1.000000
  0.100402 -0.072459  0.000000      1.000000
  0.012550  0.123180  0.000000      1.000000
 -0.012550 -0.123180  0.000000      1.000000
  0.112952  0.050721  0.000000      1.000000
 -0.112952 -0.050721  0.000000      1.000000
  0.112952  0.079704  0.000000      1.000000
 -0.112952 -0.079704  0.000000      1.000000
 -0.012550  0.137671  0.000000      1.000000
  0.012550 -0.137671  0.000000      1.000000
 -0.125502  0.057967  0.000000      1.000000
  0.125502 -0.057967  0.000000      1.000000
 -0.112952  0.079704  0.000000      1.000000
  0.112952 -0.079704  0.000000      1.000000
  0.012550  0.137671  0.000000      1.000000
 -0.012550 -0.137671  0.000000      1.000000
  0.125502  0.057967  0.000000      1.000000
 -0.125502 -0.057967  0.000000      1.000000
  0.125502  0.086950  0.000000      1.000000
 -0.125502 -0.086950  0.000000      1.000000
 -0.012550  0.152163  0.000000      1.000000
  0.012550 -0.152163  0.000000      1.000000
 -0.138052  0.065213  0.000000      1.000000
  0.138052 -0.065213  0.000000      1.000000
 -0.125502  0.086950  0.000000      1.000000
  0.125502 -0.086950  0.000000      1.000000
  0.012550  0.152163  0.000000      1.000000
 -0.012550 -0.152163  0.000000      1.000000
  0.138052  0.065213  0.000000      1.000000
 -0.138052 -0.065213  0.000000      1.000000
  0.138052  0.094196  0.000000      1.000000
 -0.138052 -0.094196  0.000000      1.000000
 -0.012550  0.166655  0.000000      1.000000
  0.012550  0.181147  0.000000      1.000000
  0.150602  0.246359  0.000000      1.000000
  0.150602 -0.072459  0.000000      1.000000
 -0.138052  0.094196  0.000000      1.000000
  0.138052  0.253605  0.000000      1.000000
  0.012550  0.166655  0.000000      1.000000
 -0.012550 -0.166655  0.000000      1.000000
  0.150602  0.072459  0.000000      1.000000
  0.150602  0.101442  0.000000      1.000000
  0.025100  0.043475  0.000000      1.000000
 -0.025100 -0.043475  0.000000      1.000000
 -0.025100  0.043475  0.000000      1.000000
  0.025100 -0.043475  0.000000      1.000000
 -0.050201 -0.000000  0.000000      1.000000
  0.050201  0.000000  0.000000      1.000000
  0.037651  0.050721  0.000000      1.000000
 -0.037651 -0.050721  0.000000      1.000000
 -0.025100  0.057967  0.000000      1.000000
  0.025100 -0.057967  0.000000      1.000000
 -0.062751  0.007246  0.000000      1.000000
  0.062751 -0.007246  0.000000      1.000000
 -0.037651  0.050721  0.000000      1.000000
  0.037651 -0.050721  0.000000      1.000000
  0.025100  0.057967  0.000000      1.000000
 -0.025100 -0.057967  0.000000      1.000000
  0.062751  0.007246  0.000000      1.000000
 -0.062751 -0.007246  0.000000      1.000000
  0.050201  0.057967  0.000000      1.000000
 -0.050201 -0.057967  0.000000      1.000000
 -0.025100  0.072459  0.000000      1.000000
  0.025100 -0.072459  0.000000      1.000000
 -0.075301  0.014492  0.000000      1.000000
  0.075301 -0.014492  0.000000      1.000000
 -0.050201  0.057967  0.000000      1.000000
  0.050201 -0.057967  0.000000      1.000000
  0.025100  0.072459  0.000000      1.000000
 -0.025100 -0.072459  0.000000      1.000000
  0.075301  0.014492  0.000000      1.000000
 -0.075301 -0.014492  0.000000      1.000000
  0.062751  0.065213  0.000000      1.000000
 -0.062751 -0.065213  0.000000      1.000000
 -0.025100  0.086950  0.000000      1.000000
  0.025100 -0.086950  0.000000      1.000000
 -0.087851  0.021738  0.000000      1.000000
  0.087851 -0.021738  0.000000      1.000000
 -0.062751  0.065213  0.000000      1.000000
  0.062751 -0.065213  0.000000      1.000000
  0.025100  0.086950  0.000000      1.000000
 -0.025100 -0.086950  0.000000      1.000000
  0.087851  0.021738  0.000000      1.000000
 -0.087851 -0.021738  0.000000      1.000000
  0.075301  0.072459  0.000000      1.000000
 -0.075301 -0.072459  0.000000      1.000000
 -0.025100  0.101442  0.000000      1.000000
  0.025100 -0.101442  0.000000      1.000000
 -0.100402  0.028983  0.000000      1.000000
  0.100402 -0.028983  0.000000      1.000000
 -0.075301  0.072459  0.000000      1.000000
  0.075301 -0.072459  0.000000      1.000000
  0.025100  0.101442  0.000000      1.000000
 -0.025100 -0.101442  0.000000      1.000000
  0.100402  0.028983  0.000000      1.000000
 -0.100402 -0.028983  0.000000      1.000000
  0.087851  0.079704  0.000000      1.000000
 -0.087851 -0.079704  0.000000      1.000000
 -0.025100  0.115934  0.000000      1.000000
  0.025100 -0.115934  0.000000      1.000000
 -0.112952  0.036229  0.000000      1.000000
  0.112952 -0.036229  0.000000      1.000000
 -0.087851  0.079704  0.000000      1.000000
  0.087851 -0.079704  0.000000      1.000000
  0.025100  0.115934  0.000000      1.000000
 -0.025100 -0.115934  0.000000      1.000000
  0.112952  0.036229  0.000000      1.000000
 -0.112952 -0.036229  0.000000      1.000000
  0.100402  0.086950  0.000000      1.000000
 -0.100402 -0.086950  0.000000      1.000000
 -0.025100  0.130426  0.000000      1.000000
  0.025100 -0.130426  0.000000      1.000000
 -0.125502  0.043475  0.000000      1.000000
  0.125502 -0.043475  0.000000      1.000000
 -0.100402  0.086950  0.000000      1.000000
  0.100402 -0.086950  0.000000      1.000000
  0.025100  0.130426  0.000000      1.000000
 -0.025100 -0.130426  0.000000      1.000000
  0.125502  0.043475  0.000000      1.000000
 -0.125502 -0.043475  0.000000      1.000000
  0.112952  0.094196  0.000000      1.000000
 -0.112952 -0.094196  0.000000      1.000000
 -0.025100  0.144917  0.000000      1.000000
  0.025100 -0.144917  0.000000      1.000000
 -0.138052  0.050721  0.000000      1.000000
  0.138052 -0.050721  0.000000      1.000000
 -0.112952  0.094196  0.000000      1.000000
  0.112952 -0.094196  0.000000      1.000000
  0.025100  0.144917  0.000000      1.000000
 -0.025100 -0.144917  0.000000      1.000000
  0.138052  0.050721  0.000000      1.000000
 -0.138052 -0.050721  0.000000      1.000000
  0.125502  0.101442  0.000000      1.000000
 -0.125502 -0.101442  0.000000      1.000000
 -0.025100  0.159409  0.000000      1.000000
  0.025100  0.188392  0.000000      1.000000
  0.150602  0.231868  0.000000      1.000000
  0.150602 -0.057967  0.000000      1.000000
 -0.125502  0.101442  0.000000      1.000000
  0.125502  0.246359  0.000000      1.000000
  0.025100  0.159409  0.000000      1.000000
 -0.025100 -0.159409  0.000000      1.000000
  0.150602  0.057967  0.000000      1.000000
  0.150602  0.115934  0.000000      1.000000
  0.138052  0.108688  0.000000      1.000000
 -0.138052 -0.108688  0.000000      1.000000
 -0.025100 -0.173901  0.000000      1.000000
  0.025100  0.173901  0.000000      1.000000
  0.138052  0.239113  0.000000      1.000000
 -0.138052 -0.239113  0.000000      1.000000
  0.037651  0.065213  0.000000      1.000000
 -0.037651 -0.065213  0.000000      1.000000
 -0.037651  0.065213  0.000000      1.000000
  0.037651 -0.065213  0.000000      1.000000
 -0.075301  0.000000  0.000000      1.000000
  0.075301  0.000000  0.000000      1.000000
  0.050201  0.072459  0.000000      1.000000
 -0.050201 -0.072459  0.000000      1.000000
 -0.037651  0.079704  0.000000      1.000000
  0.037651 -0.079704  0.000000      1.000000
 -0.087851  0.007246  0.000000      1.000000
  0.087851 -0.007246  0.000000      1.000000
 -0.050201  0.072459  0.000000      1.000000
  0.050201 -0.072459  0.000000      1.000000
  0.037651  0.079704  0.000000      1.000000
 -0.037651 -0.079704  0.000000      1.000000
  0.087851  0.007246  0.000000      1.000000
 -0.087851 -0.007246  0.000000      1.000000
  0.062751  0.079704  0.000000      1.000000
 -0.062751 -0.079704  0.000000      1.000000
 -0.037651  0.094196  0.000000      1.000000
  0.037651 -0.094196  0.000000      1.000000
 -0.100402  0.014492  0.000000      1.000000
  0.100402 -0.014492  0.000000      1.000000
 -0.062751  0.079704  0.000000      1.000000
  0.062751 -0.079704  0.000000      1.000000
  0.037651  0.094196  0.000000      1.000000
 -0.037651 -0.094196  0.000000      1.000000
  0.100402  0.014492  0.000000      1.000000
 -0.100402 -0.014492  0.000000      1.000000
  0.075301  0.086950  0.000000      1.000000
 -0.075301 -0.086950  0.000000      1.000000
 -0.037651  0.108688  0.000000      1.000000
  0.037651 -0.108688  0.000000      1.000000
 -0.112952  0.021738  0.000000      1.000000
  0.112952 -0.021738  0.000000      1.000000
 -0.075301  0.086950  0.000000      1.000000
  0.075301 -0.086950  0.000000      1.000000
  0.037651  0.108688  0.000000      1.000000
 -0.037651 -0.108688  0.000000      1.000000
  0.112952  0.021738  0.000000      1.000000
 -0.112952 -0.021738  0.000000      1.000000
  0.087851  0.094196  0.000000      1.000000
 -0.087851 -0.094196  0.000000      1.000000
 -0.037651  0.123180  0.000000      1.000000
  0.037651 -0.123180  0.000000      1.000000
 -0.125502  0.028983  0.000000      1.000000
  0.125502 -0.028983  0.000000      1.000000
 -0.087851  0.094196  0.000000      1.000000
  0.087851 -0.094196  0.000000      1.000000
  0.037651  0.123180  0.000000      1.000000
 -0.037651 -0.123180  0.000000      1.000000
  0.125502  0.028983  0.000000      1.000000
 -0.125502 -0.028983  0.000000      1.000000
  0.100402  0.101442  0.000000      1.000000
 -0.100402 -0.101442  0.000000      1.000000
 -0.037651  0.137671  0.000000      1.000000
  0.037651 -0.137671  0.000000      1.000000
 -0.138052  0.036229  0.000000      1.000000
  0.138052 -0.036229  0.000000      1.000000
 -0.100402  0.101442  0.000000      1.000000
  0.100402 -0.101442  0.000000      1.000000
  0.037651  0.137671  0.000000      1.000000
 -0.037651 -0.137671  0.000000      1.000000
  0.138052  0.036229  0.000000      1.000000
 -0.138052 -0.036229  0.000000      1.000000
  0.112952  0.108688  0.000000      1.000000
 -0.112952 -0.108688  0.000000      1.000000
 -0.037651  0.152163  0.000000      1.000000
  0.037651  0.195638  0.000000      1.000000
  0.150602  0.217376  0.000000      1.000000
  0.150602 -0.043475  0.000000      1.000000
 -0.112952  0.108688  0.000000      1.000000
  0.112952  0.239113  0.000000      1.000000
  0.037651  0.152163  0.000000      1.000000
 -0.037651 -0.152163  0.000000      1.000000
  0.150602  0.043475  0.000000      1.000000
  0.150602  0.130426  0.000000      1.000000
  0.125502  0.115934  0.000000      1.000000
 -0.125502 -0.115934  0.000000      1.000000
 -0.037651 -0.181147  0.000000      1.000000
  0.037651  0.181147  0.000000      1.000000
  0.138052  0.224622  0.000000      1.000000
 -0.138052 -0.224622  0.000000      1.000000
 -0.125502 -0.231868  0.000000      1.000000
  0.125502  0.231868  0.000000      1.000000
  0.037651  0.166655  0.000000      1.000000
 -0.037651 -0.166655  0.000000      1.000000
 -0.138052 -0.123180  0.000000      1.000000
  0.138052  0.123180  0.000000      1.000000
  0.050201  0.086950  0.000000      1.000000
 -0.050201 -0.086950  0.000000      1.000000
 -0.050201  0.086950  0.000000      1.000000
  0.050201 -0.086950  0.000000      1.000000
 -0.100402 -0.000000  0.000000      1.000000
  0.100402  0.000000  0.000000      1.000000
  0.062751  0.094196  0.000000      1.000000
 -0.062751 -0.094196  0.000000      1.000000
 -0.050201  0.101442  0.000000      1.000000
  0.050201 -0.101442  0.000000      1.000000
 -0.112952  0.007246  0.000000      1.000000
  0.112952 -0.007246  0.000000      1.000000
 -0.062751  0.094196  0.000000      1.000000
  0.062751 -0.094196  0.000000      1.000000
  0.050201  0.101442  0.000000      1.000000
 -0.050201 -0.101442  0.000000      1.000000
  0.112952  0.007246  0.000000      1.000000
 -0.112952 -0.007246  0.000000      1.000000
  0.075301  0.101442  0.000000      1.000000
 -0.075301 -0.101442  0.000000      1.000000
 -0.050201  0.115934  0.000000      1.000000
  0.050201 -0.115934  0.000000      1.000000
 -0.125502  0.014492  0.000000      1.000000
  0.125502 -0.014492  0.000000      1.000000
 -0.075301  0.101442  0.000000      1.000000
  0.075301 -0.101442  0.000000      1.000000
  0.050201  0.115934  0.000000      1.000000
 -0.050201 -0.115934  0.000000      1.000000
  0.125502  0.014492  0.000000      1.000000
 -0.125502 -0.014492  0.000000      1.000000
  0.087851  0.108688  0.000000      1.000000
 -0.087851 -0.108688  0.000000      1.000000
 -0.050201  0.130426  0.000000      1.000000
  0.050201 -0.130426  0.000000      1.000000
 -0.138052  0.021738  0.000000      1.000000
  0.138052 -0.021738  0.000000      1.000000
 -0.087851  0.108688  0.000000      1.000000
  0.087851 -0.108688  0.000000      1.000000
  0.050201  0.130426  0.000000      1.000000
 -0.050201 -0.130426  0.000000      1.000000
  0.138052  0.021738  0.000000      1.000000
 -0.138052 -0.021738  0.000000      1.000000
  0.100402  0.115934  0.000000      1.000000
 -0.100402 -0.115934  0.000000      1.000000
 -0.050201  0.144917  0.000000      1.000000
  0.050201  0.202884  0.000000      1.000000
  0.150602  0.202884  0.000000      1.000000
  0.150602 -0.028983  0.000000      1.000000
 -0.100402  0.115934  0.000000      1.000000
  0.100402  0.231868  0.000000      1.000000
  0.050201  0.144917  0.000000      1.000000
 -0.050201 -0.144917  0.000000      1.000000
  0.150602  0.028983  0.000000      1.000000
  0.150602  0.144917  0.000000      1.000000
  0.112952  0.123180  0.000000      1.000000
 -0.112952 -0.123180  0.000000      1.000000
 -0.050201 -0.188392  0.000000      1.000000
  0.050201  0.188392  0.000000      1.000000
  0.138052  0.210130  0.000000      1.000000
 -0.138052 -0.210130  0.000000      1.000000
 -0.112952 -0.224622  0.000000      1.000000
  0.112952  0.224622  0.000000      1.000000
  0.050201  0.159409  0.000000      1.000000
 -0.050201 -0.159409  0.000000      1.000000
 -0.138052 -0.137671  0.000000      1.000000
  0.138052  0.137671  0.000000      1.000000
  0.125502  0.130426  0.000000      1.000000
 -0.125502 -0.130426  0.000000      1.000000
 -0.050201 -0.173901  0.000000      1.000000
  0.050201  0.173901  0.000000      1.000000
  0.125502  0.217376  0.000000      1.000000
 -0.125502 -0.217376  0.000000      1.000000
  0.062751  0.108688  0.000000      1.000000
 -0.062751 -0.108688  0.000000      1.000000
 -0.062751  0.108688  0.000000      1.000000
  0.062751 -0.108688  0.000000      1.000000
 -0.125502 -0.000000  0.000000      1.000000
  0.125502  0.000000  0.000000      1.000000
  0.075301  0.115934  0.000000      1.000000
 -0.075301 -0.115934  0.000000      1.000000
 -0.062751  0.123180  0.000000      1.000000
  0.062751 -0.123180  0.000000      1.000000
 -0.138052  0.007246  0.000000      1.000000
  0.138052 -0.007246  0.000000      1.000000
 -0.075301  0.115934  0.000000      1.000000
  0.075301 -0.115934  0.000000      1.000000
  0.062751  0.123180  0.000000      1.000000
 -0.062751 -0.123180  0.000000      1.000000
  0.138052  0.007246  0.000000      1.000000
 -0.138052 -0.007246  0.000000      1.000000
  0.087851  0.123180  0.000000      1.000000
 -0.087851 -0.123180  0.000000      1.000000
 -0.062751  0.137671  0.000000      1.000000
  0.062751  0.210130  0.000000      1.000000
  0.150602  0.188392  0.000000      1.000000
  0.150602 -0.014492  0.000000      1.000000
 -0.087851  0.123180  0.000000      1.000000
  0.087851  0.224622  0.000000      1.000000
  0.062751  0.137671  0.000000      1.000000
 -0.062751 -0.137671  0.000000      1.000000
  0.150602  0.014492  0.000000      1.000000
  0.150602  0.159409  0.000000      1.000000
  0.100402  0.130426  0.000000      1.000000
 -0.100402 -0.130426  0.000000      1.000000
 -0.062751 -0.195638  0.000000      1.000000
  0.062751  0.195638  0.000000      1.000000
  0.138052  0.195638  0.000000      1.000000
 -0.138052 -0.195638  0.000000      1.000000
 -0.100402 -0.217376  0.000000      1.000000
  0.100402  0.217376  0.000000      1.000000
  0.062751  0.152163  0.000000      1.000000
 -0.062751 -0.152163  0.000000      1.000000
 -0.138052 -0.152163  0.000000      1.000000
  0.138052  0.152163  0.000000      1.000000
  0.112952  0.137671  0.000000      1.000000
 -0.112952 -0.137671  0.000000      1.000000
 -0.062751 -0.181147  0.000000      1.000000
  0.062751  0.181147  0.000000      1.000000
  0.125502  0.202884  0.000000      1.000000
 -0.125502 -0.202884  0.000000      1.000000
 -0.112952 -0.210130  0.000000      1.000000
  0.112952  0.210130  0.000000      1.000000
  0.062751  0.166655  0.000000      1.000000
 -0.062751 -0.166655  0.000000      1.000000
 -0.125502 -0.144917  0.000000      1.000000
  0.125502  0.144917  0.000000      1.000000
  0.075301  0.130426  0.000000      1.000000
 -0.075301 -0.130426  0.000000      1.000000
 -0.075301  0.130426  0.000000      1.000000
  0.075301  0.217376  0.000000      1.000000
  0.150602  0.173901  0.000000      1.000000
  0.150602  0.000000  0.000000      1.000000
  0.087851  0.137671  0.000000      1.000000
 -0.087851 -0.137671  0.000000      1.000000
 -0.075301 -0.202884  0.000000      1.000000
  0.075301  0.202884  0.000000      1.000000
  0.138052  0.181147  0.000000      1.000000
 -0.138052 -0.181147  0.000000      1.000000
 -0.087851 -0.210130  0.000000      1.000000
  0.087851  0.210130  0.000000      1.000000
  0.075301  0.144917  0.000000      1.000000
 -0.075301 -0.144917  0.000000      1.000000
 -0.138052 -0.166655  0.000000      1.000000
  0.138052  0.166655  0.000000      1.000000
  0.100402  0.144917  0.000000      1.000000
 -0.100402 -0.144917  0.000000      1.000000
 -0.075301 -0.188392  0.000000      1.000000
  0.075301  0.188392  0.000000      1.000000
  0.125502  0.188392  0.000000      1.000000
 -0.125502 -0.188392  0.000000      1.000000
 -0.100402 -0.202884  0.000000      1.000000
  0.100402  0.202884  0.000000      1.000000
  0.075301  0.159409  0.000000      1.000000
 -0.075301 -0.159409  0.000000      1.000000
 -0.125502 -0.159409  0.000000      1.000000
  0.125502  0.159409  0.000000      1.000000
  0.112952  0.152163  0.000000      1.000000
 -0.112952 -0.152163  0.000000      1.000000
 -0.075301 -0.173901  0.000000      1.000000
  0.075301  0.173901  0.000000      1.000000
  0.112952  0.195638  0.000000      1.000000
 -0.112952 -0.195638  0.000000      1.000000
  0.087851  0.152163  0.000000      1.000000
 -0.087851 -0.152163  0.000000      1.000000
 -0.087851 -0.195638  0.000000      1.000000
  0.087851  0.195638  0.000000      1.000000
  0.125502  0.173901  0.000000      1.000000
 -0.125502 -0.173901  0.000000      1.000000
  0.100402  0.159409  0.000000      1.000000
 -0.100402 -0.159409  0.000000      1.000000
 -0.087851 -0.181147  0.000000      1.000000
  0.087851  0.181147  0.000000      1.000000
  0.112952  0.181147  0.000000      1.000000
 -0.112952 -0.181147  0.000000      1.000000
 -0.100402 -0.188392  0.000000      1.000000
  0.100402  0.188392  0.000000      1.000000
  0.087851  0.166655  0.000000      1.000000
 -0.087851 -0.166655  0.000000      1.000000
 -0.112952 -0.166655  0.000000      1.000000
  0.112952  0.166655  0.000000      1.000000
  0.100402  0.173901  0.000000      1.000000
 -0.100402 -0.173901  0.000000      1.000000
 
 files read and symmetry switched off, memory is now:
 total amount of memory used by VASP MPI-rank0  1477271. kBytes
=======================================================================

   base      :      30000. kBytes
   nonl-proj :    1342315. kBytes
   fftplans  :        312. kBytes
   grid      :       1361. kBytes
   one-center:        242. kBytes
   HF        :       1344. kBytes
   nonlr-proj:        838. kBytes
   wavefun   :     100859. kBytes
 
 Basis sets for responsefunctions:
 =================================
 k-point   1 :   0.0000 0.0000 0.0000  plane waves:     801
 k-point   2 :   0.0417-0.0000 0.0000  plane waves:     813
 k-point   3 :   0.0833-0.0000 0.0000  plane waves:     803
 k-point   4 :   0.1250-0.0000 0.0000  plane waves:     807
 k-point   5 :   0.1667-0.0000 0.0000  plane waves:     810
 k-point   6 :   0.2083-0.0000 0.0000  plane waves:     794
 k-point   7 :   0.2500-0.0000 0.0000  plane waves:     784
 k-point   8 :   0.2917 0.0000 0.0000  plane waves:     792
 k-point   9 :   0.3333-0.0000 0.0000  plane waves:     796
 k-point  10 :   0.3750-0.0000 0.0000  plane waves:     802
 k-point  11 :   0.4167-0.0000 0.0000  plane waves:     796
 k-point  12 :   0.4583-0.0000 0.0000  plane waves:     802
 k-point  13 :   0.5000-0.0000 0.0000  plane waves:     806
 k-point  14 :   0.0417 0.0417 0.0000  plane waves:     807
 k-point  15 :   0.0833 0.0417 0.0000  plane waves:     805
 k-point  16 :   0.1250 0.0417 0.0000  plane waves:     810
 k-point  17 :   0.1667 0.0417 0.0000  plane waves:     810
 k-point  18 :   0.2083 0.0417 0.0000  plane waves:     798
 k-point  19 :   0.2500 0.0417 0.0000  plane waves:     792
 k-point  20 :   0.2917 0.0417 0.0000  plane waves:     792
 k-point  21 :   0.3333 0.0417 0.0000  plane waves:     791
 k-point  22 :   0.3750 0.0417 0.0000  plane waves:     796
 k-point  23 :   0.4167 0.0417 0.0000  plane waves:     798
 k-point  24 :   0.4583 0.0417 0.0000  plane waves:     798
 k-point  25 :   0.0833 0.0833 0.0000  plane waves:     807
 k-point  26 :   0.1250 0.0833 0.0000  plane waves:     815
 k-point  27 :   0.1667 0.0833 0.0000  plane waves:     811
 k-point  28 :   0.2083 0.0833 0.0000  plane waves:     795
 k-point  29 :   0.2500 0.0833 0.0000  plane waves:     798
 k-point  30 :   0.2917 0.0833 0.0000  plane waves:     794
 k-point  31 :   0.3333 0.0833 0.0000  plane waves:     797
 k-point  32 :   0.3750 0.0833 0.0000  plane waves:     793
 k-point  33 :   0.4167 0.0833 0.0000  plane waves:     796
 k-point  34 :   0.4583 0.0833 0.0000  plane waves:     796
 k-point  35 :   0.1250 0.1250 0.0000  plane waves:     803
 k-point  36 :   0.1667 0.1250 0.0000  plane waves:     807
 k-point  37 :   0.2083 0.1250 0.0000  plane waves:     796
 k-point  38 :   0.2500 0.1250 0.0000  plane waves:     792
 k-point  39 :   0.2917 0.1250 0.0000  plane waves:     794
 k-point  40 :   0.3333 0.1250 0.0000  plane waves:     791
 k-point  41 :   0.3750 0.1250 0.0000  plane waves:     791
 k-point  42 :   0.4167 0.1250 0.0000  plane waves:     788
 k-point  43 :   0.1667 0.1667 0.0000  plane waves:     799
 k-point  44 :   0.2083 0.1667 0.0000  plane waves:     792
 k-point  45 :   0.2500 0.1667 0.0000  plane waves:     790
 k-point  46 :   0.2917 0.1667 0.0000  plane waves:     791
 k-point  47 :   0.3333 0.1667 0.0000  plane waves:     788
 k-point  48 :   0.3750 0.1667 0.0000  plane waves:     790
 k-point  49 :   0.4167 0.1667 0.0000  plane waves:     788
 k-point  50 :   0.2083 0.2083 0.0000  plane waves:     791
 k-point  51 :   0.2500 0.2083 0.0000  plane waves:     791
 k-point  52 :   0.2917 0.2083 0.0000  plane waves:     789
 k-point  53 :   0.3333 0.2083 0.0000  plane waves:     788
 k-point  54 :   0.3750 0.2083 0.0000  plane waves:     794
 k-point  55 :   0.2500 0.2500 0.0000  plane waves:     795
 k-point  56 :   0.2917 0.2500 0.0000  plane waves:     789
 k-point  57 :   0.3333 0.2500 0.0000  plane waves:     792
 k-point  58 :   0.3750 0.2500 0.0000  plane waves:     790
 k-point  59 :   0.2917 0.2917 0.0000  plane waves:     791
 k-point  60 :   0.3333 0.2917 0.0000  plane waves:     786
 k-point  61 :   0.3333 0.3333 0.0000  plane waves:     771
 k-point  62 :  -0.0417 0.0000 0.0000  plane waves:     813
 k-point  63 :   0.0000 0.0417 0.0000  plane waves:     813
 k-point  64 :  -0.0000-0.0417 0.0000  plane waves:     813
 k-point  65 :  -0.0417 0.0417 0.0000  plane waves:     813
 k-point  66 :   0.0417-0.0417 0.0000  plane waves:     813
 k-point  67 :  -0.0833 0.0000 0.0000  plane waves:     803
 k-point  68 :   0.0000 0.0833 0.0000  plane waves:     803
 k-point  69 :  -0.0000-0.0833 0.0000  plane waves:     803
 k-point  70 :  -0.0833 0.0833 0.0000  plane waves:     803
 k-point  71 :   0.0833-0.0833 0.0000  plane waves:     803
 k-point  72 :  -0.1250 0.0000 0.0000  plane waves:     807
 k-point  73 :   0.0000 0.1250 0.0000  plane waves:     807
 k-point  74 :  -0.0000-0.1250 0.0000  plane waves:     807
 k-point  75 :  -0.1250 0.1250 0.0000  plane waves:     807
 k-point  76 :   0.1250-0.1250 0.0000  plane waves:     807
 k-point  77 :  -0.1667 0.0000 0.0000  plane waves:     810
 k-point  78 :   0.0000 0.1667 0.0000  plane waves:     810
 k-point  79 :  -0.0000-0.1667 0.0000  plane waves:     810
 k-point  80 :  -0.1667 0.1667 0.0000  plane waves:     810
 k-point  81 :   0.1667-0.1667 0.0000  plane waves:     810
 k-point  82 :  -0.2083 0.0000 0.0000  plane waves:     794
 k-point  83 :   0.0000 0.2083 0.0000  plane waves:     794
 k-point  84 :  -0.0000-0.2083 0.0000  plane waves:     794
 k-point  85 :  -0.2083 0.2083 0.0000  plane waves:     794
 k-point  86 :   0.2083-0.2083 0.0000  plane waves:     794
 k-point  87 :  -0.2500 0.0000 0.0000  plane waves:     784
 k-point  88 :   0.0000 0.2500 0.0000  plane waves:     784
 k-point  89 :  -0.0000-0.2500 0.0000  plane waves:     784
 k-point  90 :  -0.2500 0.2500 0.0000  plane waves:     784
 k-point  91 :   0.2500-0.2500 0.0000  plane waves:     784
 k-point  92 :  -0.2917-0.0000 0.0000  plane waves:     792
 k-point  93 :  -0.0000 0.2917 0.0000  plane waves:     792
 k-point  94 :   0.0000-0.2917 0.0000  plane waves:     792
 k-point  95 :  -0.2917 0.2917 0.0000  plane waves:     792
 k-point  96 :   0.2917-0.2917 0.0000  plane waves:     792
 k-point  97 :  -0.3333 0.0000 0.0000  plane waves:     796
 k-point  98 :   0.0000 0.3333 0.0000  plane waves:     796
 k-point  99 :  -0.0000-0.3333 0.0000  plane waves:     796
 k-point 100 :  -0.3333 0.3333 0.0000  plane waves:     796
 k-point 101 :   0.3333-0.3333 0.0000  plane waves:     796
 k-point 102 :  -0.3750 0.0000 0.0000  plane waves:     802
 k-point 103 :   0.0000 0.3750 0.0000  plane waves:     802
 k-point 104 :  -0.0000-0.3750 0.0000  plane waves:     802
 k-point 105 :  -0.3750 0.3750 0.0000  plane waves:     802
 k-point 106 :   0.3750-0.3750 0.0000  plane waves:     802
 k-point 107 :  -0.4167 0.0000 0.0000  plane waves:     796
 k-point 108 :   0.0000 0.4167 0.0000  plane waves:     796
 k-point 109 :  -0.0000-0.4167 0.0000  plane waves:     796
 k-point 110 :  -0.4167 0.4167 0.0000  plane waves:     796
 k-point 111 :   0.4167-0.4167 0.0000  plane waves:     796
 k-point 112 :  -0.4583 0.0000 0.0000  plane waves:     802
 k-point 113 :   0.0000 0.4583 0.0000  plane waves:     802
 k-point 114 :  -0.0000-0.4583 0.0000  plane waves:     802
 k-point 115 :  -0.4583 0.4583 0.0000  plane waves:     802
 k-point 116 :   0.4583-0.4583 0.0000  plane waves:     802
 k-point 117 :  -0.0000-0.5000 0.0000  plane waves:     806
 k-point 118 :  -0.5000 0.5000 0.0000  plane waves:     806
 k-point 119 :  -0.0417-0.0417 0.0000  plane waves:     807
 k-point 120 :  -0.0417 0.0833 0.0000  plane waves:     807
 k-point 121 :   0.0417-0.0833 0.0000  plane waves:     807
 k-point 122 :  -0.0833 0.0417 0.0000  plane waves:     807
 k-point 123 :   0.0833-0.0417 0.0000  plane waves:     807
 k-point 124 :  -0.0833-0.0417 0.0000  plane waves:     805
 k-point 125 :  -0.0417 0.1250 0.0000  plane waves:     805
 k-point 126 :   0.0417-0.1250 0.0000  plane waves:     805
 k-point 127 :  -0.1250 0.0833 0.0000  plane waves:     805
 k-point 128 :   0.1250-0.0833 0.0000  plane waves:     805
 k-point 129 :  -0.0833 0.1250 0.0000  plane waves:     805
 k-point 130 :   0.0833-0.1250 0.0000  plane waves:     805
 k-point 131 :   0.0417 0.0833 0.0000  plane waves:     805
 k-point 132 :  -0.0417-0.0833 0.0000  plane waves:     805
 k-point 133 :   0.1250-0.0417 0.0000  plane waves:     805
 k-point 134 :  -0.1250 0.0417 0.0000  plane waves:     805
 k-point 135 :  -0.1250-0.0417 0.0000  plane waves:     810
 k-point 136 :  -0.0417 0.1667 0.0000  plane waves:     810
 k-point 137 :   0.0417-0.1667 0.0000  plane waves:     810
 k-point 138 :  -0.1667 0.1250 0.0000  plane waves:     810
 k-point 139 :   0.1667-0.1250 0.0000  plane waves:     810
 k-point 140 :  -0.1250 0.1667 0.0000  plane waves:     810
 k-point 141 :   0.1250-0.1667 0.0000  plane waves:     810
 k-point 142 :   0.0417 0.1250 0.0000  plane waves:     810
 k-point 143 :  -0.0417-0.1250 0.0000  plane waves:     810
 k-point 144 :   0.1667-0.0417 0.0000  plane waves:     810
 k-point 145 :  -0.1667 0.0417 0.0000  plane waves:     810
 k-point 146 :  -0.1667-0.0417 0.0000  plane waves:     810
 k-point 147 :  -0.0417 0.2083 0.0000  plane waves:     810
 k-point 148 :   0.0417-0.2083 0.0000  plane waves:     810
 k-point 149 :  -0.2083 0.1667 0.0000  plane waves:     810
 k-point 150 :   0.2083-0.1667 0.0000  plane waves:     810
 k-point 151 :  -0.1667 0.2083 0.0000  plane waves:     810
 k-point 152 :   0.1667-0.2083 0.0000  plane waves:     810
 k-point 153 :   0.0417 0.1667 0.0000  plane waves:     810
 k-point 154 :  -0.0417-0.1667 0.0000  plane waves:     810
 k-point 155 :   0.2083-0.0417 0.0000  plane waves:     810
 k-point 156 :  -0.2083 0.0417 0.0000  plane waves:     810
 k-point 157 :  -0.2083-0.0417 0.0000  plane waves:     798
 k-point 158 :  -0.0417 0.2500 0.0000  plane waves:     798
 k-point 159 :   0.0417-0.2500 0.0000  plane waves:     798
 k-point 160 :  -0.2500 0.2083 0.0000  plane waves:     798
 k-point 161 :   0.2500-0.2083 0.0000  plane waves:     798
 k-point 162 :  -0.2083 0.2500 0.0000  plane waves:     798
 k-point 163 :   0.2083-0.2500 0.0000  plane waves:     798
 k-point 164 :   0.0417 0.2083 0.0000  plane waves:     798
 k-point 165 :  -0.0417-0.2083 0.0000  plane waves:     798
 k-point 166 :   0.2500-0.0417 0.0000  plane waves:     798
 k-point 167 :  -0.2500 0.0417 0.0000  plane waves:     798
 k-point 168 :  -0.2500-0.0417 0.0000  plane waves:     792
 k-point 169 :  -0.0417 0.2917 0.0000  plane waves:     792
 k-point 170 :   0.0417-0.2917 0.0000  plane waves:     792
 k-point 171 :  -0.2917 0.2500 0.0000  plane waves:     792
 k-point 172 :   0.2917-0.2500 0.0000  plane waves:     792
 k-point 173 :  -0.2500 0.2917 0.0000  plane waves:     792
 k-point 174 :   0.2500-0.2917 0.0000  plane waves:     792
 k-point 175 :   0.0417 0.2500 0.0000  plane waves:     792
 k-point 176 :  -0.0417-0.2500 0.0000  plane waves:     792
 k-point 177 :   0.2917-0.0417 0.0000  plane waves:     792
 k-point 178 :  -0.2917 0.0417 0.0000  plane waves:     792
 k-point 179 :  -0.2917-0.0417 0.0000  plane waves:     792
 k-point 180 :  -0.0417 0.3333 0.0000  plane waves:     792
 k-point 181 :   0.0417-0.3333 0.0000  plane waves:     792
 k-point 182 :  -0.3333 0.2917 0.0000  plane waves:     792
 k-point 183 :   0.3333-0.2917 0.0000  plane waves:     792
 k-point 184 :  -0.2917 0.3333 0.0000  plane waves:     792
 k-point 185 :   0.2917-0.3333 0.0000  plane waves:     792
 k-point 186 :   0.0417 0.2917 0.0000  plane waves:     792
 k-point 187 :  -0.0417-0.2917 0.0000  plane waves:     792
 k-point 188 :   0.3333-0.0417 0.0000  plane waves:     792
 k-point 189 :  -0.3333 0.0417 0.0000  plane waves:     792
 k-point 190 :  -0.3333-0.0417 0.0000  plane waves:     791
 k-point 191 :  -0.0417 0.3750 0.0000  plane waves:     791
 k-point 192 :   0.0417-0.3750 0.0000  plane waves:     791
 k-point 193 :  -0.3750 0.3333 0.0000  plane waves:     791
 k-point 194 :   0.3750-0.3333 0.0000  plane waves:     791
 k-point 195 :  -0.3333 0.3750 0.0000  plane waves:     791
 k-point 196 :   0.3333-0.3750 0.0000  plane waves:     791
 k-point 197 :   0.0417 0.3333 0.0000  plane waves:     791
 k-point 198 :  -0.0417-0.3333 0.0000  plane waves:     791
 k-point 199 :   0.3750-0.0417 0.0000  plane waves:     791
 k-point 200 :  -0.3750 0.0417 0.0000  plane waves:     791
 k-point 201 :  -0.3750-0.0417 0.0000  plane waves:     796
 k-point 202 :  -0.0417 0.4167 0.0000  plane waves:     796
 k-point 203 :   0.0417-0.4167 0.0000  plane waves:     796
 k-point 204 :  -0.4167 0.3750 0.0000  plane waves:     796
 k-point 205 :   0.4167-0.3750 0.0000  plane waves:     796
 k-point 206 :  -0.3750 0.4167 0.0000  plane waves:     796
 k-point 207 :   0.3750-0.4167 0.0000  plane waves:     796
 k-point 208 :   0.0417 0.3750 0.0000  plane waves:     796
 k-point 209 :  -0.0417-0.3750 0.0000  plane waves:     796
 k-point 210 :   0.4167-0.0417 0.0000  plane waves:     796
 k-point 211 :  -0.4167 0.0417 0.0000  plane waves:     796
 k-point 212 :  -0.4167-0.0417 0.0000  plane waves:     798
 k-point 213 :  -0.0417 0.4583 0.0000  plane waves:     798
 k-point 214 :   0.0417-0.4583 0.0000  plane waves:     798
 k-point 215 :  -0.4583 0.4167 0.0000  plane waves:     798
 k-point 216 :   0.4583-0.4167 0.0000  plane waves:     798
 k-point 217 :  -0.4167 0.4583 0.0000  plane waves:     798
 k-point 218 :   0.4167-0.4583 0.0000  plane waves:     798
 k-point 219 :   0.0417 0.4167 0.0000  plane waves:     798
 k-point 220 :  -0.0417-0.4167 0.0000  plane waves:     798
 k-point 221 :   0.4583-0.0417 0.0000  plane waves:     798
 k-point 222 :  -0.4583 0.0417 0.0000  plane waves:     798
 k-point 223 :  -0.4583-0.0417 0.0000  plane waves:     798
 k-point 224 :  -0.0417 0.5000 0.0000  plane waves:     798
 k-point 225 :   0.0417-0.5000 0.0000  plane waves:     798
 k-point 226 :  -0.5000 0.4583 0.0000  plane waves:     798
 k-point 227 :   0.5000-0.4583 0.0000  plane waves:     798
 k-point 228 :  -0.4583 0.5000 0.0000  plane waves:     798
 k-point 229 :   0.4583-0.5000 0.0000  plane waves:     798
 k-point 230 :   0.0417 0.4583 0.0000  plane waves:     798
 k-point 231 :  -0.0417-0.4583 0.0000  plane waves:     798
 k-point 232 :   0.5000-0.0417 0.0000  plane waves:     798
 k-point 233 :  -0.5000 0.0417 0.0000  plane waves:     798
 k-point 234 :  -0.0833-0.0833 0.0000  plane waves:     807
 k-point 235 :  -0.0833 0.1667 0.0000  plane waves:     807
 k-point 236 :   0.0833-0.1667 0.0000  plane waves:     807
 k-point 237 :  -0.1667 0.0833 0.0000  plane waves:     807
 k-point 238 :   0.1667-0.0833 0.0000  plane waves:     807
 k-point 239 :  -0.1250-0.0833 0.0000  plane waves:     815
 k-point 240 :  -0.0833 0.2083 0.0000  plane waves:     815
 k-point 241 :   0.0833-0.2083 0.0000  plane waves:     815
 k-point 242 :  -0.2083 0.1250 0.0000  plane waves:     815
 k-point 243 :   0.2083-0.1250 0.0000  plane waves:     815
 k-point 244 :  -0.1250 0.2083 0.0000  plane waves:     815
 k-point 245 :   0.1250-0.2083 0.0000  plane waves:     815
 k-point 246 :   0.0833 0.1250 0.0000  plane waves:     815
 k-point 247 :  -0.0833-0.1250 0.0000  plane waves:     815
 k-point 248 :   0.2083-0.0833 0.0000  plane waves:     815
 k-point 249 :  -0.2083 0.0833 0.0000  plane waves:     815
 k-point 250 :  -0.1667-0.0833 0.0000  plane waves:     811
 k-point 251 :  -0.0833 0.2500 0.0000  plane waves:     811
 k-point 252 :   0.0833-0.2500 0.0000  plane waves:     811
 k-point 253 :  -0.2500 0.1667 0.0000  plane waves:     811
 k-point 254 :   0.2500-0.1667 0.0000  plane waves:     811
 k-point 255 :  -0.1667 0.2500 0.0000  plane waves:     811
 k-point 256 :   0.1667-0.2500 0.0000  plane waves:     811
 k-point 257 :   0.0833 0.1667 0.0000  plane waves:     811
 k-point 258 :  -0.0833-0.1667 0.0000  plane waves:     811
 k-point 259 :   0.2500-0.0833 0.0000  plane waves:     811
 k-point 260 :  -0.2500 0.0833 0.0000  plane waves:     811
 k-point 261 :  -0.2083-0.0833 0.0000  plane waves:     795
 k-point 262 :  -0.0833 0.2917 0.0000  plane waves:     795
 k-point 263 :   0.0833-0.2917 0.0000  plane waves:     795
 k-point 264 :  -0.2917 0.2083 0.0000  plane waves:     795
 k-point 265 :   0.2917-0.2083 0.0000  plane waves:     795
 k-point 266 :  -0.2083 0.2917 0.0000  plane waves:     795
 k-point 267 :   0.2083-0.2917 0.0000  plane waves:     795
 k-point 268 :   0.0833 0.2083 0.0000  plane waves:     795
 k-point 269 :  -0.0833-0.2083 0.0000  plane waves:     795
 k-point 270 :   0.2917-0.0833 0.0000  plane waves:     795
 k-point 271 :  -0.2917 0.0833 0.0000  plane waves:     795
 k-point 272 :  -0.2500-0.0833 0.0000  plane waves:     798
 k-point 273 :  -0.0833 0.3333 0.0000  plane waves:     798
 k-point 274 :   0.0833-0.3333 0.0000  plane waves:     798
 k-point 275 :  -0.3333 0.2500 0.0000  plane waves:     798
 k-point 276 :   0.3333-0.2500 0.0000  plane waves:     798
 k-point 277 :  -0.2500 0.3333 0.0000  plane waves:     798
 k-point 278 :   0.2500-0.3333 0.0000  plane waves:     798
 k-point 279 :   0.0833 0.2500 0.0000  plane waves:     798
 k-point 280 :  -0.0833-0.2500 0.0000  plane waves:     798
 k-point 281 :   0.3333-0.0833 0.0000  plane waves:     798
 k-point 282 :  -0.3333 0.0833 0.0000  plane waves:     798
 k-point 283 :  -0.2917-0.0833 0.0000  plane waves:     794
 k-point 284 :  -0.0833 0.3750 0.0000  plane waves:     794
 k-point 285 :   0.0833-0.3750 0.0000  plane waves:     794
 k-point 286 :  -0.3750 0.2917 0.0000  plane waves:     794
 k-point 287 :   0.3750-0.2917 0.0000  plane waves:     794
 k-point 288 :  -0.2917 0.3750 0.0000  plane waves:     794
 k-point 289 :   0.2917-0.3750 0.0000  plane waves:     794
 k-point 290 :   0.0833 0.2917 0.0000  plane waves:     794
 k-point 291 :  -0.0833-0.2917 0.0000  plane waves:     794
 k-point 292 :   0.3750-0.0833 0.0000  plane waves:     794
 k-point 293 :  -0.3750 0.0833 0.0000  plane waves:     794
 k-point 294 :  -0.3333-0.0833 0.0000  plane waves:     797
 k-point 295 :  -0.0833 0.4167 0.0000  plane waves:     797
 k-point 296 :   0.0833-0.4167 0.0000  plane waves:     797
 k-point 297 :  -0.4167 0.3333 0.0000  plane waves:     797
 k-point 298 :   0.4167-0.3333 0.0000  plane waves:     797
 k-point 299 :  -0.3333 0.4167 0.0000  plane waves:     797
 k-point 300 :   0.3333-0.4167 0.0000  plane waves:     797
 k-point 301 :   0.0833 0.3333 0.0000  plane waves:     797
 k-point 302 :  -0.0833-0.3333 0.0000  plane waves:     797
 k-point 303 :   0.4167-0.0833 0.0000  plane waves:     797
 k-point 304 :  -0.4167 0.0833 0.0000  plane waves:     797
 k-point 305 :  -0.3750-0.0833 0.0000  plane waves:     793
 k-point 306 :  -0.0833 0.4583 0.0000  plane waves:     793
 k-point 307 :   0.0833-0.4583 0.0000  plane waves:     793
 k-point 308 :  -0.4583 0.3750 0.0000  plane waves:     793
 k-point 309 :   0.4583-0.3750 0.0000  plane waves:     793
 k-point 310 :  -0.3750 0.4583 0.0000  plane waves:     793
 k-point 311 :   0.3750-0.4583 0.0000  plane waves:     793
 k-point 312 :   0.0833 0.3750 0.0000  plane waves:     793
 k-point 313 :  -0.0833-0.3750 0.0000  plane waves:     793
 k-point 314 :   0.4583-0.0833 0.0000  plane waves:     793
 k-point 315 :  -0.4583 0.0833 0.0000  plane waves:     793
 k-point 316 :  -0.4167-0.0833 0.0000  plane waves:     796
 k-point 317 :  -0.0833 0.5000 0.0000  plane waves:     796
 k-point 318 :   0.0833-0.5000 0.0000  plane waves:     796
 k-point 319 :  -0.5000 0.4167 0.0000  plane waves:     796
 k-point 320 :   0.5000-0.4167 0.0000  plane waves:     796
 k-point 321 :  -0.4167 0.5000 0.0000  plane waves:     796
 k-point 322 :   0.4167-0.5000 0.0000  plane waves:     796
 k-point 323 :   0.0833 0.4167 0.0000  plane waves:     796
 k-point 324 :  -0.0833-0.4167 0.0000  plane waves:     796
 k-point 325 :   0.5000-0.0833 0.0000  plane waves:     796
 k-point 326 :  -0.5000 0.0833 0.0000  plane waves:     796
 k-point 327 :   0.5417-0.0833 0.0000  plane waves:     796
 k-point 328 :  -0.0833-0.4583 0.0000  plane waves:     796
 k-point 329 :   0.0833-0.5417 0.0000  plane waves:     796
 k-point 330 :  -0.5417 0.4583 0.0000  plane waves:     796
 k-point 331 :  -0.4583 0.5417 0.0000  plane waves:     796
 k-point 332 :  -0.1250-0.1250 0.0000  plane waves:     803
 k-point 333 :  -0.1250 0.2500 0.0000  plane waves:     803
 k-point 334 :   0.1250-0.2500 0.0000  plane waves:     803
 k-point 335 :  -0.2500 0.1250 0.0000  plane waves:     803
 k-point 336 :   0.2500-0.1250 0.0000  plane waves:     803
 k-point 337 :  -0.1667-0.1250 0.0000  plane waves:     807
 k-point 338 :  -0.1250 0.2917 0.0000  plane waves:     807
 k-point 339 :   0.1250-0.2917 0.0000  plane waves:     807
 k-point 340 :  -0.2917 0.1667 0.0000  plane waves:     807
 k-point 341 :   0.2917-0.1667 0.0000  plane waves:     807
 k-point 342 :  -0.1667 0.2917 0.0000  plane waves:     807
 k-point 343 :   0.1667-0.2917 0.0000  plane waves:     807
 k-point 344 :   0.1250 0.1667 0.0000  plane waves:     807
 k-point 345 :  -0.1250-0.1667 0.0000  plane waves:     807
 k-point 346 :   0.2917-0.1250 0.0000  plane waves:     807
 k-point 347 :  -0.2917 0.1250 0.0000  plane waves:     807
 k-point 348 :  -0.2083-0.1250 0.0000  plane waves:     796
 k-point 349 :  -0.1250 0.3333 0.0000  plane waves:     796
 k-point 350 :   0.1250-0.3333 0.0000  plane waves:     796
 k-point 351 :  -0.3333 0.2083 0.0000  plane waves:     796
 k-point 352 :   0.3333-0.2083 0.0000  plane waves:     796
 k-point 353 :  -0.2083 0.3333 0.0000  plane waves:     796
 k-point 354 :   0.2083-0.3333 0.0000  plane waves:     796
 k-point 355 :   0.1250 0.2083 0.0000  plane waves:     796
 k-point 356 :  -0.1250-0.2083 0.0000  plane waves:     796
 k-point 357 :   0.3333-0.1250 0.0000  plane waves:     796
 k-point 358 :  -0.3333 0.1250 0.0000  plane waves:     796
 k-point 359 :  -0.2500-0.1250 0.0000  plane waves:     792
 k-point 360 :  -0.1250 0.3750 0.0000  plane waves:     792
 k-point 361 :   0.1250-0.3750 0.0000  plane waves:     792
 k-point 362 :  -0.3750 0.2500 0.0000  plane waves:     792
 k-point 363 :   0.3750-0.2500 0.0000  plane waves:     792
 k-point 364 :  -0.2500 0.3750 0.0000  plane waves:     792
 k-point 365 :   0.2500-0.3750 0.0000  plane waves:     792
 k-point 366 :   0.1250 0.2500 0.0000  plane waves:     792
 k-point 367 :  -0.1250-0.2500 0.0000  plane waves:     792
 k-point 368 :   0.3750-0.1250 0.0000  plane waves:     792
 k-point 369 :  -0.3750 0.1250 0.0000  plane waves:     792
 k-point 370 :  -0.2917-0.1250 0.0000  plane waves:     794
 k-point 371 :  -0.1250 0.4167 0.0000  plane waves:     794
 k-point 372 :   0.1250-0.4167 0.0000  plane waves:     794
 k-point 373 :  -0.4167 0.2917 0.0000  plane waves:     794
 k-point 374 :   0.4167-0.2917 0.0000  plane waves:     794
 k-point 375 :  -0.2917 0.4167 0.0000  plane waves:     794
 k-point 376 :   0.2917-0.4167 0.0000  plane waves:     794
 k-point 377 :   0.1250 0.2917 0.0000  plane waves:     794
 k-point 378 :  -0.1250-0.2917 0.0000  plane waves:     794
 k-point 379 :   0.4167-0.1250 0.0000  plane waves:     794
 k-point 380 :  -0.4167 0.1250 0.0000  plane waves:     794
 k-point 381 :  -0.3333-0.1250 0.0000  plane waves:     791
 k-point 382 :  -0.1250 0.4583 0.0000  plane waves:     791
 k-point 383 :   0.1250-0.4583 0.0000  plane waves:     791
 k-point 384 :  -0.4583 0.3333 0.0000  plane waves:     791
 k-point 385 :   0.4583-0.3333 0.0000  plane waves:     791
 k-point 386 :  -0.3333 0.4583 0.0000  plane waves:     791
 k-point 387 :   0.3333-0.4583 0.0000  plane waves:     791
 k-point 388 :   0.1250 0.3333 0.0000  plane waves:     791
 k-point 389 :  -0.1250-0.3333 0.0000  plane waves:     791
 k-point 390 :   0.4583-0.1250 0.0000  plane waves:     791
 k-point 391 :  -0.4583 0.1250 0.0000  plane waves:     791
 k-point 392 :  -0.3750-0.1250 0.0000  plane waves:     791
 k-point 393 :  -0.1250 0.5000 0.0000  plane waves:     791
 k-point 394 :   0.1250-0.5000 0.0000  plane waves:     791
 k-point 395 :  -0.5000 0.3750 0.0000  plane waves:     791
 k-point 396 :   0.5000-0.3750 0.0000  plane waves:     791
 k-point 397 :  -0.3750 0.5000 0.0000  plane waves:     791
 k-point 398 :   0.3750-0.5000 0.0000  plane waves:     791
 k-point 399 :   0.1250 0.3750 0.0000  plane waves:     791
 k-point 400 :  -0.1250-0.3750 0.0000  plane waves:     791
 k-point 401 :   0.5000-0.1250 0.0000  plane waves:     791
 k-point 402 :  -0.5000 0.1250 0.0000  plane waves:     791
 k-point 403 :  -0.4167-0.1250 0.0000  plane waves:     788
 k-point 404 :  -0.1250 0.5417 0.0000  plane waves:     788
 k-point 405 :   0.1250-0.5417 0.0000  plane waves:     788
 k-point 406 :  -0.5417 0.4167 0.0000  plane waves:     788
 k-point 407 :   0.5417-0.4167 0.0000  plane waves:     788
 k-point 408 :  -0.4167 0.5417 0.0000  plane waves:     788
 k-point 409 :   0.4167-0.5417 0.0000  plane waves:     788
 k-point 410 :   0.1250 0.4167 0.0000  plane waves:     788
 k-point 411 :  -0.1250-0.4167 0.0000  plane waves:     788
 k-point 412 :   0.5417-0.1250 0.0000  plane waves:     788
 k-point 413 :  -0.5417 0.1250 0.0000  plane waves:     788
 k-point 414 :  -0.1667-0.1667 0.0000  plane waves:     799
 k-point 415 :  -0.1667 0.3333 0.0000  plane waves:     799
 k-point 416 :   0.1667-0.3333 0.0000  plane waves:     799
 k-point 417 :  -0.3333 0.1667 0.0000  plane waves:     799
 k-point 418 :   0.3333-0.1667 0.0000  plane waves:     799
 k-point 419 :  -0.2083-0.1667 0.0000  plane waves:     792
 k-point 420 :  -0.1667 0.3750 0.0000  plane waves:     792
 k-point 421 :   0.1667-0.3750 0.0000  plane waves:     792
 k-point 422 :  -0.3750 0.2083 0.0000  plane waves:     792
 k-point 423 :   0.3750-0.2083 0.0000  plane waves:     792
 k-point 424 :  -0.2083 0.3750 0.0000  plane waves:     792
 k-point 425 :   0.2083-0.3750 0.0000  plane waves:     792
 k-point 426 :   0.1667 0.2083 0.0000  plane waves:     792
 k-point 427 :  -0.1667-0.2083 0.0000  plane waves:     792
 k-point 428 :   0.3750-0.1667 0.0000  plane waves:     792
 k-point 429 :  -0.3750 0.1667 0.0000  plane waves:     792
 k-point 430 :  -0.2500-0.1667 0.0000  plane waves:     790
 k-point 431 :  -0.1667 0.4167 0.0000  plane waves:     790
 k-point 432 :   0.1667-0.4167 0.0000  plane waves:     790
 k-point 433 :  -0.4167 0.2500 0.0000  plane waves:     790
 k-point 434 :   0.4167-0.2500 0.0000  plane waves:     790
 k-point 435 :  -0.2500 0.4167 0.0000  plane waves:     790
 k-point 436 :   0.2500-0.4167 0.0000  plane waves:     790
 k-point 437 :   0.1667 0.2500 0.0000  plane waves:     790
 k-point 438 :  -0.1667-0.2500 0.0000  plane waves:     790
 k-point 439 :   0.4167-0.1667 0.0000  plane waves:     790
 k-point 440 :  -0.4167 0.1667 0.0000  plane waves:     790
 k-point 441 :  -0.2917-0.1667 0.0000  plane waves:     791
 k-point 442 :  -0.1667 0.4583 0.0000  plane waves:     791
 k-point 443 :   0.1667-0.4583 0.0000  plane waves:     791
 k-point 444 :  -0.4583 0.2917 0.0000  plane waves:     791
 k-point 445 :   0.4583-0.2917 0.0000  plane waves:     791
 k-point 446 :  -0.2917 0.4583 0.0000  plane waves:     791
 k-point 447 :   0.2917-0.4583 0.0000  plane waves:     791
 k-point 448 :   0.1667 0.2917 0.0000  plane waves:     791
 k-point 449 :  -0.1667-0.2917 0.0000  plane waves:     791
 k-point 450 :   0.4583-0.1667 0.0000  plane waves:     791
 k-point 451 :  -0.4583 0.1667 0.0000  plane waves:     791
 k-point 452 :  -0.3333-0.1667 0.0000  plane waves:     788
 k-point 453 :  -0.1667 0.5000 0.0000  plane waves:     788
 k-point 454 :   0.1667-0.5000 0.0000  plane waves:     788
 k-point 455 :  -0.5000 0.3333 0.0000  plane waves:     788
 k-point 456 :   0.5000-0.3333 0.0000  plane waves:     788
 k-point 457 :  -0.3333 0.5000 0.0000  plane waves:     788
 k-point 458 :   0.3333-0.5000 0.0000  plane waves:     788
 k-point 459 :   0.1667 0.3333 0.0000  plane waves:     788
 k-point 460 :  -0.1667-0.3333 0.0000  plane waves:     788
 k-point 461 :   0.5000-0.1667 0.0000  plane waves:     788
 k-point 462 :  -0.5000 0.1667 0.0000  plane waves:     788
 k-point 463 :  -0.3750-0.1667 0.0000  plane waves:     790
 k-point 464 :  -0.1667 0.5417 0.0000  plane waves:     790
 k-point 465 :   0.1667-0.5417 0.0000  plane waves:     790
 k-point 466 :  -0.5417 0.3750 0.0000  plane waves:     790
 k-point 467 :   0.5417-0.3750 0.0000  plane waves:     790
 k-point 468 :  -0.3750 0.5417 0.0000  plane waves:     790
 k-point 469 :   0.3750-0.5417 0.0000  plane waves:     790
 k-point 470 :   0.1667 0.3750 0.0000  plane waves:     790
 k-point 471 :  -0.1667-0.3750 0.0000  plane waves:     790
 k-point 472 :   0.5417-0.1667 0.0000  plane waves:     790
 k-point 473 :  -0.5417 0.1667 0.0000  plane waves:     790
 k-point 474 :   0.5833-0.1667 0.0000  plane waves:     788
 k-point 475 :  -0.1667-0.4167 0.0000  plane waves:     788
 k-point 476 :   0.1667-0.5833 0.0000  plane waves:     788
 k-point 477 :  -0.5833 0.4167 0.0000  plane waves:     788
 k-point 478 :  -0.4167 0.5833 0.0000  plane waves:     788
 k-point 479 :  -0.2083-0.2083 0.0000  plane waves:     791
 k-point 480 :  -0.2083 0.4167 0.0000  plane waves:     791
 k-point 481 :   0.2083-0.4167 0.0000  plane waves:     791
 k-point 482 :  -0.4167 0.2083 0.0000  plane waves:     791
 k-point 483 :   0.4167-0.2083 0.0000  plane waves:     791
 k-point 484 :  -0.2500-0.2083 0.0000  plane waves:     791
 k-point 485 :  -0.2083 0.4583 0.0000  plane waves:     791
 k-point 486 :   0.2083-0.4583 0.0000  plane waves:     791
 k-point 487 :  -0.4583 0.2500 0.0000  plane waves:     791
 k-point 488 :   0.4583-0.2500 0.0000  plane waves:     791
 k-point 489 :  -0.2500 0.4583 0.0000  plane waves:     791
 k-point 490 :   0.2500-0.4583 0.0000  plane waves:     791
 k-point 491 :   0.2083 0.2500 0.0000  plane waves:     791
 k-point 492 :  -0.2083-0.2500 0.0000  plane waves:     791
 k-point 493 :   0.4583-0.2083 0.0000  plane waves:     791
 k-point 494 :  -0.4583 0.2083 0.0000  plane waves:     791
 k-point 495 :  -0.2917-0.2083 0.0000  plane waves:     789
 k-point 496 :  -0.2083 0.5000 0.0000  plane waves:     789
 k-point 497 :   0.2083-0.5000 0.0000  plane waves:     789
 k-point 498 :  -0.5000 0.2917 0.0000  plane waves:     789
 k-point 499 :   0.5000-0.2917 0.0000  plane waves:     789
 k-point 500 :  -0.2917 0.5000 0.0000  plane waves:     789
 k-point 501 :   0.2917-0.5000 0.0000  plane waves:     789
 k-point 502 :   0.2083 0.2917 0.0000  plane waves:     789
 k-point 503 :  -0.2083-0.2917 0.0000  plane waves:     789
 k-point 504 :   0.5000-0.2083 0.0000  plane waves:     789
 k-point 505 :  -0.5000 0.2083 0.0000  plane waves:     789
 k-point 506 :  -0.3333-0.2083 0.0000  plane waves:     788
 k-point 507 :  -0.2083 0.5417 0.0000  plane waves:     788
 k-point 508 :   0.2083-0.5417 0.0000  plane waves:     788
 k-point 509 :  -0.5417 0.3333 0.0000  plane waves:     788
 k-point 510 :   0.5417-0.3333 0.0000  plane waves:     788
 k-point 511 :  -0.3333 0.5417 0.0000  plane waves:     788
 k-point 512 :   0.3333-0.5417 0.0000  plane waves:     788
 k-point 513 :   0.2083 0.3333 0.0000  plane waves:     788
 k-point 514 :  -0.2083-0.3333 0.0000  plane waves:     788
 k-point 515 :   0.5417-0.2083 0.0000  plane waves:     788
 k-point 516 :  -0.5417 0.2083 0.0000  plane waves:     788
 k-point 517 :  -0.3750-0.2083 0.0000  plane waves:     794
 k-point 518 :  -0.2083 0.5833 0.0000  plane waves:     794
 k-point 519 :   0.2083-0.5833 0.0000  plane waves:     794
 k-point 520 :  -0.5833 0.3750 0.0000  plane waves:     794
 k-point 521 :   0.5833-0.3750 0.0000  plane waves:     794
 k-point 522 :  -0.3750 0.5833 0.0000  plane waves:     794
 k-point 523 :   0.3750-0.5833 0.0000  plane waves:     794
 k-point 524 :   0.2083 0.3750 0.0000  plane waves:     794
 k-point 525 :  -0.2083-0.3750 0.0000  plane waves:     794
 k-point 526 :   0.5833-0.2083 0.0000  plane waves:     794
 k-point 527 :  -0.5833 0.2083 0.0000  plane waves:     794
 k-point 528 :  -0.2500-0.2500 0.0000  plane waves:     795
 k-point 529 :  -0.2500 0.5000 0.0000  plane waves:     795
 k-point 530 :   0.2500-0.5000 0.0000  plane waves:     795
 k-point 531 :  -0.5000 0.2500 0.0000  plane waves:     795
 k-point 532 :   0.5000-0.2500 0.0000  plane waves:     795
 k-point 533 :  -0.2917-0.2500 0.0000  plane waves:     789
 k-point 534 :  -0.2500 0.5417 0.0000  plane waves:     789
 k-point 535 :   0.2500-0.5417 0.0000  plane waves:     789
 k-point 536 :  -0.5417 0.2917 0.0000  plane waves:     789
 k-point 537 :   0.5417-0.2917 0.0000  plane waves:     789
 k-point 538 :  -0.2917 0.5417 0.0000  plane waves:     789
 k-point 539 :   0.2917-0.5417 0.0000  plane waves:     789
 k-point 540 :   0.2500 0.2917 0.0000  plane waves:     789
 k-point 541 :  -0.2500-0.2917 0.0000  plane waves:     789
 k-point 542 :   0.5417-0.2500 0.0000  plane waves:     789
 k-point 543 :  -0.5417 0.2500 0.0000  plane waves:     789
 k-point 544 :  -0.3333-0.2500 0.0000  plane waves:     792
 k-point 545 :  -0.2500 0.5833 0.0000  plane waves:     792
 k-point 546 :   0.2500-0.5833 0.0000  plane waves:     792
 k-point 547 :  -0.5833 0.3333 0.0000  plane waves:     792
 k-point 548 :   0.5833-0.3333 0.0000  plane waves:     792
 k-point 549 :  -0.3333 0.5833 0.0000  plane waves:     792
 k-point 550 :   0.3333-0.5833 0.0000  plane waves:     792
 k-point 551 :   0.2500 0.3333 0.0000  plane waves:     792
 k-point 552 :  -0.2500-0.3333 0.0000  plane waves:     792
 k-point 553 :   0.5833-0.2500 0.0000  plane waves:     792
 k-point 554 :  -0.5833 0.2500 0.0000  plane waves:     792
 k-point 555 :   0.6250-0.2500 0.0000  plane waves:     790
 k-point 556 :  -0.2500-0.3750 0.0000  plane waves:     790
 k-point 557 :   0.2500-0.6250 0.0000  plane waves:     790
 k-point 558 :  -0.6250 0.3750 0.0000  plane waves:     790
 k-point 559 :  -0.3750 0.6250 0.0000  plane waves:     790
 k-point 560 :  -0.2917-0.2917 0.0000  plane waves:     791
 k-point 561 :  -0.2917 0.5833 0.0000  plane waves:     791
 k-point 562 :   0.2917-0.5833 0.0000  plane waves:     791
 k-point 563 :  -0.5833 0.2917 0.0000  plane waves:     791
 k-point 564 :   0.5833-0.2917 0.0000  plane waves:     791
 k-point 565 :  -0.3333-0.2917 0.0000  plane waves:     786
 k-point 566 :  -0.2917 0.6250 0.0000  plane waves:     786
 k-point 567 :   0.2917-0.6250 0.0000  plane waves:     786
 k-point 568 :  -0.6250 0.3333 0.0000  plane waves:     786
 k-point 569 :   0.6250-0.3333 0.0000  plane waves:     786
 k-point 570 :  -0.3333 0.6250 0.0000  plane waves:     786
 k-point 571 :   0.3333-0.6250 0.0000  plane waves:     786
 k-point 572 :   0.2917 0.3333 0.0000  plane waves:     786
 k-point 573 :  -0.2917-0.3333 0.0000  plane waves:     786
 k-point 574 :   0.6250-0.2917 0.0000  plane waves:     786
 k-point 575 :  -0.6250 0.2917 0.0000  plane waves:     786
 k-point 576 :  -0.3333 0.6667 0.0000  plane waves:     771

 maximum and minimum number of plane-waves per node :       815      771

 maximum number of plane-waves:       815
 maximum index in each direction: 
   IXMAX=    3   IYMAX=    3   IZMAX=   19
   IXMIN=   -3   IYMIN=   -3   IZMIN=  -19


 min. memory requirement per mpi rank   1442.6 MB, per node  69247.1 MB

NQ=   1    0.0000    0.0000    0.0000, 
 parallelization over k-points

 Bands included in the BSE spin= 1
 VB(min)=   10  VB(max)=   13
 CB(min)=   14  CB(max)=   21

 electron-hole pairs beyond OMEGAMAX are removed OMEGAMAX=   6.00000
 W is read from the files WXXXX.tmp or WFULLXXXX.tmp if present
 BSE (scaLAPACK) attempting allocation of   0.020 Gbyte  rank=   5481

 total amount of memory used by VASP MPI-rank0  7644360. kBytes
=======================================================================

   base      :      30000. kBytes
   nonl-proj :    1342315. kBytes
   fftplans  :        312. kBytes
   grid      :       1361. kBytes
   one-center:        242. kBytes
   HF        :       1344. kBytes
   nonlr-proj:        838. kBytes
   wavefun   :     100859. kBytes
   response  :    6146781. kBytes
   bse       :      20308. kBytes
 
 BLAS level 3 operations / number of FFT's:
 number of FFTs for wave wavefunctions               6912. fft
 number of operations in four-orbital integrals    3257.62 Gflops,  45199872. fft
    BSESET:  cpu time    468.2372: real time    472.7619
    BSESUM:  cpu time      0.0001: real time      0.0001
  BSEDIAG1:  cpu time      4.7659: real time      4.7947
    SQUARE:  cpu time      3.2364: real time      3.2653
  BSEDIAG2:  cpu time      3.9276: real time      3.9552
    EIGVEC:  cpu time      1.5968: real time      1.6112
    CORREN:  cpu time      0.0002: real time      0.0002
    SELFEN:  cpu time      0.0001: real time      0.0001
   BSEOSZI:  cpu time      2.6876: real time      2.7590

 total amount of memory used by VASP MPI-rank0  1387065. kBytes
=======================================================================

   base      :      30000. kBytes
   nonl-proj :    1342315. kBytes
   fftplans  :        312. kBytes
   grid      :       1361. kBytes
   one-center:        242. kBytes
   HF        :       1344. kBytes
   nonlr-proj:        838. kBytes
   wavefun   :          0. kBytes
   response  :      10653. kBytes
   bse       :          0. kBytes
 
  
  
 General timing and accounting informations for this job:
 ========================================================
  
                  Total CPU time used (sec):      494.432
                            User time (sec):      487.751
                          System time (sec):        6.681
                         Elapsed time (sec):      499.827
  
                   Maximum memory used (kb):     7802120.
                   Average memory used (kb):          N/A
  
                          Minor page faults:       449685
                          Major page faults:            0
                 Voluntary context switches:         1355
