Mo  Se                                  
   1.00000000000000     
     3.3199999999999998    0.0000000000000000    0.0000000000000000
    -1.6599999999999999    2.8752043405643399    0.0000000000000000
     0.0000000000000000    0.0000000000000000   20.0000000000000000
   Mo   Se
     1     2
Direct
  0.6666666666666643  0.3333333333333357  0.5000000000000000
  0.3333333333333357  0.6666666666666643  0.4164573917861947
  0.3333333333333357  0.6666666666666643  0.5835426082138053
 
  0.00000000E+00  0.00000000E+00  0.00000000E+00
  0.00000000E+00  0.00000000E+00  0.00000000E+00
  0.00000000E+00  0.00000000E+00  0.00000000E+00
