Monkhorst-Pack
67
Rec
     -0.46666667      -0.40000000       0.00000000    1.0
     -0.46666667       0.00000000       0.00000000    1.0
     -0.43333333      -0.30000000       0.00000000    1.0
     -0.43333333       0.00000000       0.00000000    1.0
     -0.40000000      -0.20000000       0.00000000    1.0
     -0.40000000       0.00000000       0.00000000    1.0
     -0.36666667      -0.10000000       0.00000000    1.0
     -0.36666667       0.00000000       0.00000000    1.0
     -0.33333333       0.00000000       0.00000000    1.0
     -0.30000000       0.00000000       0.00000000    1.0
     -0.30000000       0.10000000       0.00000000    1.0
     -0.26666667       0.20000000       0.00000000    1.0
     -0.26666667       0.00000000       0.00000000    1.0
     -0.23333333       0.00000000       0.00000000    1.0
     -0.23333333       0.30000000       0.00000000    1.0
     -0.20000000       0.40000000       0.00000000    1.0
     -0.20000000       0.00000000       0.00000000    1.0
     -0.16666667       0.50000000       0.00000000    1.0
     -0.16666667       0.00000000       0.00000000    1.0
     -0.13333333      -0.40000000       0.00000000    1.0
     -0.13333333      -0.00000000       0.00000000    1.0
     -0.10000000      -0.30000000       0.00000000    1.0
     -0.10000000      -0.00000000       0.00000000    1.0
     -0.06666667      -0.20000000       0.00000000    1.0
     -0.06666667       0.00000000       0.00000000    1.0
     -0.03333333      -0.10000000       0.00000000    1.0
     -0.03333333       0.00000000       0.00000000    1.0
      0.00000000      -0.50000000       0.00000000    1.0
      0.00000000      -0.40000000       0.00000000    1.0
      0.00000000      -0.30000000       0.00000000    1.0
      0.00000000      -0.20000000       0.00000000    1.0
      0.00000000      -0.10000000       0.00000000    1.0
      0.00000000       0.00000000       0.00000000    1.0
      0.00000000       0.10000000       0.00000000    1.0
      0.00000000       0.20000000       0.00000000    1.0
      0.00000000       0.30000000       0.00000000    1.0
      0.00000000       0.40000000       0.00000000    1.0
      0.00000000       0.50000000       0.00000000    1.0
      0.03333333       0.10000000       0.00000000    1.0
      0.03333333       0.00000000       0.00000000    1.0
      0.06666667       0.20000000       0.00000000    1.0
      0.06666667       0.00000000       0.00000000    1.0
      0.10000000      -0.00000000       0.00000000    1.0
      0.10000000       0.30000000       0.00000000    1.0
      0.13333333       0.40000000       0.00000000    1.0
      0.13333333      -0.00000000       0.00000000    1.0
      0.16666667       0.50000000       0.00000000    1.0
      0.16666667       0.00000000       0.00000000    1.0
      0.20000000      -0.40000000       0.00000000    1.0
      0.20000000       0.00000000       0.00000000    1.0
      0.23333333      -0.30000000       0.00000000    1.0
      0.23333333       0.00000000       0.00000000    1.0
      0.26666667      -0.20000000       0.00000000    1.0
      0.26666667       0.00000000       0.00000000    1.0
      0.30000000      -0.10000000       0.00000000    1.0
      0.30000000       0.00000000       0.00000000    1.0
      0.33333333       0.00000000       0.00000000    1.0
      0.36666667       0.10000000       0.00000000    1.0
      0.36666667       0.00000000       0.00000000    1.0
      0.40000000       0.20000000       0.00000000    1.0
      0.40000000       0.00000000       0.00000000    1.0
      0.43333333       0.30000000       0.00000000    1.0
      0.43333333       0.00000000       0.00000000    1.0
      0.46666667       0.40000000       0.00000000    1.0
      0.46666667       0.00000000       0.00000000    1.0
      0.50000000      -0.50000000       0.00000000    1.0
      0.50000000       0.00000000       0.00000000    1.0
