Mo  S  W                                
   1.00000000000000     
     9.5549999999999997    0.0000000000000000    0.0000000000000000
     0.0000000000000000   16.5497454663206227    0.0000000000000000
     0.0000000000000000    0.0000000000000000   25.0000000000000000
   Mo   S 
    18    36
Direct
  0.1666666666666850  0.0532954467539914  0.3753244308206694
  0.6666666666666849  0.5532954467539914  0.3753244308206694
  0.8333333333333149  0.3866287800873683  0.3753244308206694
  0.0000000000000000  0.2199621134206765  0.3753244308206694
  0.8333333333333151  0.0532954467539914  0.3753244308206694
  0.5000000000000000  0.3866287800873614  0.3753244308206695
 -0.0000000000000000  0.8866287800873613  0.3753244308206694
  0.6666666666666852  0.8866287800873683  0.3753244308206694
  0.8333333333333148  0.7199621134206765  0.3753244308206694
  0.3333333333333150  0.5532954467539914  0.3753244308206694
  0.3333333333333149  0.8866287800873613  0.3753244308206694
  0.1666666666666851  0.3866287800873683  0.3753244308206694
  0.0000000000000000  0.5532954467539914  0.3753244308206694
  0.1666666666666850  0.7199621134206764  0.3753244308206694
  0.6666666666666851  0.2199621134206764  0.3753244308206694
  0.4999999999999999  0.0532954467539844  0.3753244308206694
  0.3333333333333149  0.2199621134206764  0.3753244308206694
  0.5000000000000001  0.7199621134206764  0.3753244308206694
 -0.0000000000000000  0.3315148284522817  0.3130122829636673
 -0.0000000000000000  0.6648481617856031  0.3130122829636673
 -0.0000000000000000  0.9981814951189460  0.3130122829636673
  0.1666666666666571  0.1648481617856031  0.3130122829636673
  0.1666666666666572  0.4981814951189460  0.3130122829636673
  0.1666666666666571  0.8315148284522818  0.3130122829636673
  0.3333333333333429  0.3315148284522818  0.3130122829636673
  0.3333333333333429  0.6648481617856031  0.3130122829636673
  0.3333333333333429  0.9981814951189460  0.3130122829636673
  0.5000000000000000  0.1648481617856031  0.3130122829636673
  0.5000000000000000  0.4981814951189459  0.3130122829636673
  0.5000000000000000  0.8315148284522889  0.3130122829636673
  0.6666666666666572  0.3315148284522818  0.3130122829636673
  0.6666666666666572  0.6648481617856031  0.3130122829636673
  0.6666666666666572  0.9981814951189460  0.3130122829636673
  0.8333333333333428  0.1648481617856031  0.3130122829636673
  0.8333333333333428  0.4981814951189460  0.3130122829636673
  0.8333333333333428  0.8315148284522818  0.3130122829636673
  0.0000000000000000  0.6649047685618731  0.4376542018124366
  0.1666666666666572  0.1649047685618730  0.4376542018124366
  0.3333333333333429  0.3315714352285516  0.4376542018124366
  0.3333333333333429  0.6649047685618730  0.4376542018124366
  0.5000000000000000  0.1649047685618730  0.4376542018124366
  0.6666666666666572  0.3315714352285516  0.4376542018124366
  0.6666666666666572  0.6649047685618730  0.4376542018124366
  0.8333333333333428  0.1649047685618730  0.4376542018124366
  0.8333333333333428  0.8315714352285516  0.4376542018124366
 -0.0000000000000000  0.3315714352285516  0.4376542018124437
 -0.0000000000000000  0.9982381018952087  0.4376542018124437
  0.1666666666666572  0.4982381018952087  0.4376542018124437
  0.1666666666666571  0.8315714352285516  0.4376542018124437
  0.3333333333333429  0.9982381018952087  0.4376542018124437
  0.5000000000000000  0.4982381018952087  0.4376542018124437
  0.5000000000000000  0.8315714352285516  0.4376542018124437
  0.6666666666666572  0.9982381018952087  0.4376542018124437
  0.8333333333333429  0.4982381018952087  0.4376542018124437
 
  0.00000000E+00  0.00000000E+00  0.00000000E+00
  0.00000000E+00  0.00000000E+00  0.00000000E+00
  0.00000000E+00  0.00000000E+00  0.00000000E+00
  0.00000000E+00  0.00000000E+00  0.00000000E+00
  0.00000000E+00  0.00000000E+00  0.00000000E+00
  0.00000000E+00  0.00000000E+00  0.00000000E+00
  0.00000000E+00  0.00000000E+00  0.00000000E+00
  0.00000000E+00  0.00000000E+00  0.00000000E+00
  0.00000000E+00  0.00000000E+00  0.00000000E+00
  0.00000000E+00  0.00000000E+00  0.00000000E+00
  0.00000000E+00  0.00000000E+00  0.00000000E+00
  0.00000000E+00  0.00000000E+00  0.00000000E+00
  0.00000000E+00  0.00000000E+00  0.00000000E+00
  0.00000000E+00  0.00000000E+00  0.00000000E+00
  0.00000000E+00  0.00000000E+00  0.00000000E+00
  0.00000000E+00  0.00000000E+00  0.00000000E+00
  0.00000000E+00  0.00000000E+00  0.00000000E+00
  0.00000000E+00  0.00000000E+00  0.00000000E+00
  0.00000000E+00  0.00000000E+00  0.00000000E+00
  0.00000000E+00  0.00000000E+00  0.00000000E+00
  0.00000000E+00  0.00000000E+00  0.00000000E+00
  0.00000000E+00  0.00000000E+00  0.00000000E+00
  0.00000000E+00  0.00000000E+00  0.00000000E+00
  0.00000000E+00  0.00000000E+00  0.00000000E+00
  0.00000000E+00  0.00000000E+00  0.00000000E+00
  0.00000000E+00  0.00000000E+00  0.00000000E+00
  0.00000000E+00  0.00000000E+00  0.00000000E+00
  0.00000000E+00  0.00000000E+00  0.00000000E+00
  0.00000000E+00  0.00000000E+00  0.00000000E+00
  0.00000000E+00  0.00000000E+00  0.00000000E+00
  0.00000000E+00  0.00000000E+00  0.00000000E+00
  0.00000000E+00  0.00000000E+00  0.00000000E+00
  0.00000000E+00  0.00000000E+00  0.00000000E+00
  0.00000000E+00  0.00000000E+00  0.00000000E+00
  0.00000000E+00  0.00000000E+00  0.00000000E+00
  0.00000000E+00  0.00000000E+00  0.00000000E+00
  0.00000000E+00  0.00000000E+00  0.00000000E+00
  0.00000000E+00  0.00000000E+00  0.00000000E+00
  0.00000000E+00  0.00000000E+00  0.00000000E+00
  0.00000000E+00  0.00000000E+00  0.00000000E+00
  0.00000000E+00  0.00000000E+00  0.00000000E+00
  0.00000000E+00  0.00000000E+00  0.00000000E+00
  0.00000000E+00  0.00000000E+00  0.00000000E+00
  0.00000000E+00  0.00000000E+00  0.00000000E+00
  0.00000000E+00  0.00000000E+00  0.00000000E+00
  0.00000000E+00  0.00000000E+00  0.00000000E+00
  0.00000000E+00  0.00000000E+00  0.00000000E+00
  0.00000000E+00  0.00000000E+00  0.00000000E+00
  0.00000000E+00  0.00000000E+00  0.00000000E+00
  0.00000000E+00  0.00000000E+00  0.00000000E+00
  0.00000000E+00  0.00000000E+00  0.00000000E+00
  0.00000000E+00  0.00000000E+00  0.00000000E+00
  0.00000000E+00  0.00000000E+00  0.00000000E+00
  0.00000000E+00  0.00000000E+00  0.00000000E+00
