  Mo    S   W                           
   1.00000000000000     
     3.1850000000000001    0.0000000000000000    0.0000000000000000
    -1.5925000000000000    2.7582909110534373    0.0000000000000000
     0.0000000000000000    0.0000000000000000   25.0000000000000000
   Mo   S    W 
     1     4     1
Direct
  0.6666666666667709  0.3333333333332291  0.3768422344576123
  0.9999999999999503  0.0000000000000497  0.3144417201179905
  0.9999999999999574  0.0000000000000426  0.4392049378088529
  0.6666666666667211  0.3333333333332789  0.5606586344932794
  0.6666666666667354  0.3333333333332646  0.6857279077117866
  0.9999999999998721  0.0000000000001279  0.6231245654104782
 
  0.00000000E+00  0.00000000E+00  0.00000000E+00
  0.00000000E+00  0.00000000E+00  0.00000000E+00
  0.00000000E+00  0.00000000E+00  0.00000000E+00
  0.00000000E+00  0.00000000E+00  0.00000000E+00
  0.00000000E+00  0.00000000E+00  0.00000000E+00
  0.00000000E+00  0.00000000E+00  0.00000000E+00
