Hydrogen Atom
 1.0000000
       5.000000000       0.000000000       0.000000000
       0.000000000       5.000000000       0.000000000
       0.000000000       0.000000000       5.000000000
      H
      1
Direct
      0.5000000000      0.5000000000      0.5000000000 !      H-001    1
