Mo  S                                   
   1.00000000000000     
     9.5549999999999997    0.0000000000000000    0.0000000000000000
    -4.7774999999999999    8.2748727331603114    0.0000000000000000
     0.0000000000000000    0.0000000000000000   35.0000000000000000
   Mo   S 
     9    18
Direct
  0.2222222222223635  0.1111111111109722  0.3219555060279831
  0.5555555555556921  0.1111111111109722  0.3219555060279831
  0.8888888888890278  0.1111111111109722  0.3219555060279831
  0.2222222222223635  0.4444444444443079  0.3219555060279831
  0.5555555555556921  0.4444444444443079  0.3219555060279831
  0.8888888888890278  0.4444444444443079  0.3219555060279831
  0.2222222222223635  0.7777777777776365  0.3219555060279831
  0.5555555555556921  0.7777777777776365  0.3219555060279831
  0.8888888888890278  0.7777777777776365  0.3219555060279831
  0.3333333333332646  0.0000000000000711  0.2773787006131343
  0.6666666666665932  0.0000000000000711  0.2773787006131343
  0.9999999999999289  0.0000000000000711  0.2773787006131343
  0.3333333333332646  0.3333333333334068  0.2773787006131343
  0.6666666666665932  0.3333333333334068  0.2773787006131343
  0.9999999999999289  0.3333333333334068  0.2773787006131343
  0.3333333333332646  0.6666666666667354  0.2773787006131343
  0.6666666666665932  0.6666666666667354  0.2773787006131343
  0.9999999999999289  0.6666666666667354  0.2773787006131343
  0.3333333333332860  0.0000000000000497  0.3665443213288810
  0.6666666666666146  0.0000000000000497  0.3665443213288810
  0.9999999999999503  0.0000000000000497  0.3665443213288810
  0.3333333333332860  0.3333333333333854  0.3665443213288810
  0.6666666666666146  0.3333333333333854  0.3665443213288810
  0.9999999999999503  0.3333333333333854  0.3665443213288810
  0.3333333333332860  0.6666666666667140  0.3665443213288810
  0.6666666666666146  0.6666666666667140  0.3665443213288810
  0.9999999999999503  0.6666666666667140  0.3665443213288810
 
  0.00000000E+00  0.00000000E+00  0.00000000E+00
  0.00000000E+00  0.00000000E+00  0.00000000E+00
  0.00000000E+00  0.00000000E+00  0.00000000E+00
  0.00000000E+00  0.00000000E+00  0.00000000E+00
  0.00000000E+00  0.00000000E+00  0.00000000E+00
  0.00000000E+00  0.00000000E+00  0.00000000E+00
  0.00000000E+00  0.00000000E+00  0.00000000E+00
  0.00000000E+00  0.00000000E+00  0.00000000E+00
  0.00000000E+00  0.00000000E+00  0.00000000E+00
  0.00000000E+00  0.00000000E+00  0.00000000E+00
  0.00000000E+00  0.00000000E+00  0.00000000E+00
  0.00000000E+00  0.00000000E+00  0.00000000E+00
  0.00000000E+00  0.00000000E+00  0.00000000E+00
  0.00000000E+00  0.00000000E+00  0.00000000E+00
  0.00000000E+00  0.00000000E+00  0.00000000E+00
  0.00000000E+00  0.00000000E+00  0.00000000E+00
  0.00000000E+00  0.00000000E+00  0.00000000E+00
  0.00000000E+00  0.00000000E+00  0.00000000E+00
  0.00000000E+00  0.00000000E+00  0.00000000E+00
  0.00000000E+00  0.00000000E+00  0.00000000E+00
  0.00000000E+00  0.00000000E+00  0.00000000E+00
  0.00000000E+00  0.00000000E+00  0.00000000E+00
  0.00000000E+00  0.00000000E+00  0.00000000E+00
  0.00000000E+00  0.00000000E+00  0.00000000E+00
  0.00000000E+00  0.00000000E+00  0.00000000E+00
  0.00000000E+00  0.00000000E+00  0.00000000E+00
  0.00000000E+00  0.00000000E+00  0.00000000E+00
