P                                       
   1.00000000000000     
     3.2981834774641672    0.0000000000000001    0.0000000000000000
     0.0000000000000000    4.6225607089225305    0.0000000000000000
     0.0000000000000000    0.0000000000000000   25.0000000000000000
   P 
     4
Direct
  0.4999999998472688  0.9109181998449358  0.1565667762802434
  0.0000000001627214  0.5890818016659978  0.1565667654425127
  0.4999999999550724  0.0891751497071596  0.2407517216692838
  0.0000000000349303  0.4108248487819068  0.2407517313799374
 
  0.00000000E+00  0.00000000E+00  0.00000000E+00
  0.00000000E+00  0.00000000E+00  0.00000000E+00
  0.00000000E+00  0.00000000E+00  0.00000000E+00
  0.00000000E+00  0.00000000E+00  0.00000000E+00
