Mo  S                                   
   1.00000000000000     
     9.5709480000000013    0.0000000000000000    0.0000000000000000
    -4.7854740000000007    8.2886820000000014    0.0000000000000000
     0.0000000000000000    0.0000000000000000   30.5692707333920026
   Ce   Mo   S 
     1    17    36
Direct
  0.5555556666666632  0.4444443333333368  0.6029817948342145
  0.1110934357199603  0.2222135511933142  0.3991746575321015
  0.4444476020588624  0.2222288707843788  0.3991846670837383
  0.7777864488066858  0.2222135511933142  0.3991746575321015
  0.1111224623644358  0.5555785913955326  0.3991634236471865
  0.4444476020588624  0.5555523979411376  0.3991846670837383
  0.7777711292156212  0.5555523979411376  0.3991846670837383
  0.1111224623644358  0.8888775376355642  0.3991634236471865
  0.4444214086044674  0.8888775376355642  0.3991634236471865
  0.7777864488066858  0.8889065642800397  0.3991746575321015
  0.2167884820681591  0.1027369409400924  0.6005665346846739
  0.5526154588719230  0.1027369409400924  0.6005665346846739
  0.8888889999999989  0.1111110000000011  0.6004944982088319
  0.2167884820681591  0.4473845411280770  0.6005665346846739
  0.8972630590599076  0.4473845411280770  0.6005665346846739
  0.2222223333333346  0.7777776666666654  0.6004432838231190
  0.5526154588719230  0.7832115179318409  0.6005665346846739
  0.8972630590599076  0.7832115179318409  0.6005665346846739
  0.2222428844251574  0.1111346370392375  0.3481763715881548
  0.5555587526140769  0.1111346370392375  0.3481763715881548
  0.8888889999999989  0.1111110000000011  0.3481789848267284
  0.2222428844251574  0.4444412473859230  0.3481763715881548
  0.5555556666666632  0.4444443333333368  0.3481987563614196
  0.8888653629607625  0.4444412473859230  0.3481763715881548
  0.2222223333333346  0.7777776666666654  0.3481566067980416
  0.5555587526140769  0.7777571155748426  0.3481763715881548
  0.8888653629607625  0.7777571155748426  0.3481763715881548
  0.2221925002773286  0.1110805152946807  0.4500339259634175
  0.5555550150173488  0.1110805152946807  0.4500339259634175
  0.8888889999999989  0.1111110000000011  0.4500681802019205
  0.2221925002773286  0.4444449849826511  0.4500339259634175
  0.5555556666666632  0.4444443333333368  0.4501336116812593
  0.8889194847053193  0.4444449849826511  0.4500339259634175
  0.2222223333333346  0.7777776666666654  0.4500366939772392
  0.5555550150173488  0.7778074997226714  0.4500339259634175
  0.8889194847053193  0.7778074997226714  0.4500339259634175
  0.1121019195846761  0.2227177931256686  0.5502008581444591
  0.4332902312490765  0.1999141291648140  0.5481035664621192
  0.7772822068743314  0.2227177931256686  0.5502008581444591
  0.1119342566349024  0.5572021799364659  0.5491019273196769
  0.4332902312490765  0.5667097687509235  0.5481035664621192
  0.8000858708351860  0.5667097687509235  0.5481035664621192
  0.1119342566349024  0.8880657433650976  0.5491019273196769
  0.4427978200635341  0.8880657433650976  0.5491019273196769
  0.7772822068743314  0.8878980804153239  0.5502008581444591
  0.1116719368881943  0.2225028017774348  0.6510713025979837
  0.4295415973798026  0.1924168614262592  0.6548002719760758
  0.7774971982225651  0.2225028017774348  0.6510713025979837
  0.1122388691790734  0.5578114050248079  0.6520815238599011
  0.4295415973798026  0.5704584026201974  0.6548002719760758
  0.8075831385737409  0.5704584026201974  0.6548002719760758
  0.1122388691790734  0.8877611308209267  0.6520815238599011
  0.4421885949751922  0.8877611308209267  0.6520815238599011
  0.7774971982225651  0.8883280631117986  0.6510713025979837
 
  0.00000000E+00  0.00000000E+00  0.00000000E+00
  0.00000000E+00  0.00000000E+00  0.00000000E+00
  0.00000000E+00  0.00000000E+00  0.00000000E+00
  0.00000000E+00  0.00000000E+00  0.00000000E+00
  0.00000000E+00  0.00000000E+00  0.00000000E+00
  0.00000000E+00  0.00000000E+00  0.00000000E+00
  0.00000000E+00  0.00000000E+00  0.00000000E+00
  0.00000000E+00  0.00000000E+00  0.00000000E+00
  0.00000000E+00  0.00000000E+00  0.00000000E+00
  0.00000000E+00  0.00000000E+00  0.00000000E+00
  0.00000000E+00  0.00000000E+00  0.00000000E+00
  0.00000000E+00  0.00000000E+00  0.00000000E+00
  0.00000000E+00  0.00000000E+00  0.00000000E+00
  0.00000000E+00  0.00000000E+00  0.00000000E+00
  0.00000000E+00  0.00000000E+00  0.00000000E+00
  0.00000000E+00  0.00000000E+00  0.00000000E+00
  0.00000000E+00  0.00000000E+00  0.00000000E+00
  0.00000000E+00  0.00000000E+00  0.00000000E+00
  0.00000000E+00  0.00000000E+00  0.00000000E+00
  0.00000000E+00  0.00000000E+00  0.00000000E+00
  0.00000000E+00  0.00000000E+00  0.00000000E+00
  0.00000000E+00  0.00000000E+00  0.00000000E+00
  0.00000000E+00  0.00000000E+00  0.00000000E+00
  0.00000000E+00  0.00000000E+00  0.00000000E+00
  0.00000000E+00  0.00000000E+00  0.00000000E+00
  0.00000000E+00  0.00000000E+00  0.00000000E+00
  0.00000000E+00  0.00000000E+00  0.00000000E+00
  0.00000000E+00  0.00000000E+00  0.00000000E+00
  0.00000000E+00  0.00000000E+00  0.00000000E+00
  0.00000000E+00  0.00000000E+00  0.00000000E+00
  0.00000000E+00  0.00000000E+00  0.00000000E+00
  0.00000000E+00  0.00000000E+00  0.00000000E+00
  0.00000000E+00  0.00000000E+00  0.00000000E+00
  0.00000000E+00  0.00000000E+00  0.00000000E+00
  0.00000000E+00  0.00000000E+00  0.00000000E+00
  0.00000000E+00  0.00000000E+00  0.00000000E+00
  0.00000000E+00  0.00000000E+00  0.00000000E+00
  0.00000000E+00  0.00000000E+00  0.00000000E+00
  0.00000000E+00  0.00000000E+00  0.00000000E+00
  0.00000000E+00  0.00000000E+00  0.00000000E+00
  0.00000000E+00  0.00000000E+00  0.00000000E+00
  0.00000000E+00  0.00000000E+00  0.00000000E+00
  0.00000000E+00  0.00000000E+00  0.00000000E+00
  0.00000000E+00  0.00000000E+00  0.00000000E+00
  0.00000000E+00  0.00000000E+00  0.00000000E+00
  0.00000000E+00  0.00000000E+00  0.00000000E+00
  0.00000000E+00  0.00000000E+00  0.00000000E+00
  0.00000000E+00  0.00000000E+00  0.00000000E+00
  0.00000000E+00  0.00000000E+00  0.00000000E+00
  0.00000000E+00  0.00000000E+00  0.00000000E+00
  0.00000000E+00  0.00000000E+00  0.00000000E+00
  0.00000000E+00  0.00000000E+00  0.00000000E+00
  0.00000000E+00  0.00000000E+00  0.00000000E+00
  0.00000000E+00  0.00000000E+00  0.00000000E+00
