 C  O 
 1.0000000000000000
    10.0000000000000000    0.0000000000000000    0.0000000000000000
     0.0000000000000000   10.0000000000000000    0.0000000000000000
     0.0000000000000000    0.0000000000000000   10.0000000000000000
 C   O  
   1   2
Cartesian
  0.0000000000000000  0.0000000000000000  5.0000000000000000
  0.0000000000000000  0.0000000000000000  6.1786580000000004
  0.0000000000000000  0.0000000000000000  3.8213420000000000
