Mo  S                                   
   1.00000000000000     
     3.1850000000000001    0.0000000000000000    0.0000000000000000
    -1.5925000000000000    2.7582909110534373    0.0000000000000000
     0.0000000000000000    0.0000000000000000   35.0000000000000000
   Mo   S 
     1     2
Direct
  0.6666666666670863  0.3333333333329138  0.3219555060279850
  0.9999999999997853  0.0000000000002146  0.2773787006131311
  0.9999999999998496  0.0000000000001505  0.3665443213288824
 
  0.00000000E+00  0.00000000E+00  0.00000000E+00
  0.00000000E+00  0.00000000E+00  0.00000000E+00
  0.00000000E+00  0.00000000E+00  0.00000000E+00
