Mo  S 
 1.0000000000000000
     3.1895103163687706    0.0000000000000000    0.0000000000000000
    -1.5947551581843846    2.7621969596078975    0.0000000000000000
    -0.0000000000000000    0.0000000000000000   20.0000000000000000
  Mo   S
   1   2
Direct
  0.0000000000000000  0.0000000000000000  0.0000000000000000
  0.3333330000000000  0.6666670000000000  0.0779531499778653
  0.3333330000000000  0.6666670000000000  0.9220468500221344
