Mo  S Se  W                             
   1.00000000000000     
     3.1850000000000001    0.0000000000000000    0.0000000000000000
    -1.5925000000000000    2.7582909110534373    0.0000000000000000
     0.0000000000000000    0.0000000000000000   35.0000000000000000
   Mo   S    Se   W 
     2     4     2     1
Direct
  0.6666666666670835  0.3333333333329165  0.3219742094736446
  0.6666666666671972  0.3333333333328028  0.6798264159624736
  0.9999999999997868  0.0000000000002132  0.2773806069088707
  0.9999999999998508  0.0000000000001492  0.3665237115874831
  0.6666666666668348  0.3333333333331652  0.4535789486065980
  0.6666666666668775  0.3333333333331225  0.5428281176811325
  0.9999999999997655  0.0000000000002345  0.6308731772390956
  0.9999999999997513  0.0000000000002487  0.7288097188843636
  0.9999999999995524  0.0000000000004547  0.4982050936563382
 
  0.00000000E+00  0.00000000E+00  0.00000000E+00
  0.00000000E+00  0.00000000E+00  0.00000000E+00
  0.00000000E+00  0.00000000E+00  0.00000000E+00
  0.00000000E+00  0.00000000E+00  0.00000000E+00
  0.00000000E+00  0.00000000E+00  0.00000000E+00
  0.00000000E+00  0.00000000E+00  0.00000000E+00
  0.00000000E+00  0.00000000E+00  0.00000000E+00
  0.00000000E+00  0.00000000E+00  0.00000000E+00
  0.00000000E+00  0.00000000E+00  0.00000000E+00
