General
  SYSTEM = VaspCalc
    PREC = High
#    ENCUT = 400 eV
   ISPIN = 1
  ISTART = 1
  ICHARG = 11

Ionic Relaxation
    ISYM = 0
  IBRION = -1
     NSW = 0

Electronic relaxation
    NPAR = 4
#    IALGO = 38
    ALGO = Fast
  NELMIN = 4
    NELM = 400
   EDIFF = 1E-7
  ISMEAR = 0
   SIGMA = 0.1
  LORBIT = 11
  NBANDS = 32

Writing Flag
  NWRITE = 1
   LWAVE = .TRUE.
  LCHARG = .FALSE.
#    LVTOT = .TRUE.

# VDW-D2
    IVDW = 10
