Monkhorst-Pack
30
Line mode
Rec
  0.50000000000   0.00000000000  0.000000000000  # M
  0.00000000000   0.00000000000  0.000000000000  # G

  0.00000000000   0.00000000000  0.000000000000  # G
  0.33333333333   0.33333333333  0.000000000000  # K

  0.33333333333   0.33333333333  0.000000000000  # K
  0.50000000000   0.00000000000  0.000000000000  # M
