Mo  S 
 1.0000000000000000
     3.1995938119755656   -0.0000000000000000    0.0000000000000000
    -1.5997969059877819    2.7709295229623305    0.0000000000000000
    -0.0000000000000000    0.0000000000000000   20.0000000000000000
  Mo   S
   1   2
Direct
  0.0000000000000000  0.0000000000000000  0.0000000000000000
  0.3333330000000001  0.6666670000000000  0.0788393994256984
  0.6666666666666665  0.3333333333333333  0.9211606005743022
